&BANDS
  prefix='CuBr2'
  outdir='./out/'
  filband='qe_bands.dat'
/
