&BANDS
  prefix='cu'
  outdir='./out/'
  filband='qe_bands.dat'
/
