&INPUTPP
  outdir = './'
  prefix = 'bn'
  seedname = 'BN'
! spn_formatted = .true.
! write_unk = .true.
! reduce_unk = .true.
! wvfn_formatted = .true.
/
