&BANDS
  prefix='cubr2'
  outdir='./out/'
  filband='qe_bands.dat'
/
