&INPUTPP
  outdir = './out/'
  prefix = 'cubr2'
  seedname = 'CuBr2_nn'
  write_amn = .false.
  write_eig = .false.
  scdm_proj = .true.  ! this is useless, but we need it to avoid p2w error
/
