&BANDS
    prefix = 'Fe'
    outdir = './out/'
    filband = 'bands.dat'
    lsym = .false.
/
