&CONTROL
  calculation = 'bands'
  outdir = './out/'
  prefix = 'Fe'
  pseudo_dir = '../../pseudo/'
  restart_mode = 'from_scratch'
/
&SYSTEM
  degauss =   1.0000000000d-02
  ecutrho =   1080
  ecutwfc =   90
  ibrav = 3
  celldm(1) = 5.4235
  nat = 1
  nbnd = 18
  noinv = .true.
  nosym = .true.
  ntyp = 1
  occupations = 'smearing'
  smearing = 'cold'
  lspinorb = .true.
  noncolin = .true.
/
&ELECTRONS
  conv_thr =   1.0000000000d-8
  diago_full_acc = .true.
  electron_maxstep = 80
  mixing_beta =   4.0000000000d-01
  startingpot = 'file'
/
ATOMIC_SPECIES
 Fe 55.85 Fe.pbesol-spn-kjpaw_psl.0.2.1.UPF
ATOMIC_POSITIONS crystal
 Fe 0.0 0.0 0.0
K_POINTS crystal
         344
    0.000000    0.000000    0.000000     1.000000
    0.010000   -0.010000   -0.010000     1.000000
    0.020000   -0.020000   -0.020000     1.000000
    0.030000   -0.030000   -0.030000     1.000000
    0.040000   -0.040000   -0.040000     1.000000
    0.050000   -0.050000   -0.050000     1.000000
    0.060000   -0.060000   -0.060000     1.000000
    0.070000   -0.070000   -0.070000     1.000000
    0.080000   -0.080000   -0.080000     1.000000
    0.090000   -0.090000   -0.090000     1.000000
    0.100000   -0.100000   -0.100000     1.000000
    0.110000   -0.110000   -0.110000     1.000000
    0.120000   -0.120000   -0.120000     1.000000
    0.130000   -0.130000   -0.130000     1.000000
    0.140000   -0.140000   -0.140000     1.000000
    0.150000   -0.150000   -0.150000     1.000000
    0.160000   -0.160000   -0.160000     1.000000
    0.170000   -0.170000   -0.170000     1.000000
    0.180000   -0.180000   -0.180000     1.000000
    0.190000   -0.190000   -0.190000     1.000000
    0.200000   -0.200000   -0.200000     1.000000
    0.210000   -0.210000   -0.210000     1.000000
    0.220000   -0.220000   -0.220000     1.000000
    0.230000   -0.230000   -0.230000     1.000000
    0.240000   -0.240000   -0.240000     1.000000
    0.250000   -0.250000   -0.250000     1.000000
    0.260000   -0.260000   -0.260000     1.000000
    0.270000   -0.270000   -0.270000     1.000000
    0.280000   -0.280000   -0.280000     1.000000
    0.290000   -0.290000   -0.290000     1.000000
    0.300000   -0.300000   -0.300000     1.000000
    0.310000   -0.310000   -0.310000     1.000000
    0.320000   -0.320000   -0.320000     1.000000
    0.330000   -0.330000   -0.330000     1.000000
    0.340000   -0.340000   -0.340000     1.000000
    0.350000   -0.350000   -0.350000     1.000000
    0.360000   -0.360000   -0.360000     1.000000
    0.370000   -0.370000   -0.370000     1.000000
    0.380000   -0.380000   -0.380000     1.000000
    0.390000   -0.390000   -0.390000     1.000000
    0.400000   -0.400000   -0.400000     1.000000
    0.410000   -0.410000   -0.410000     1.000000
    0.420000   -0.420000   -0.420000     1.000000
    0.430000   -0.430000   -0.430000     1.000000
    0.440000   -0.440000   -0.440000     1.000000
    0.450000   -0.450000   -0.450000     1.000000
    0.460000   -0.460000   -0.460000     1.000000
    0.470000   -0.470000   -0.470000     1.000000
    0.480000   -0.480000   -0.480000     1.000000
    0.490000   -0.490000   -0.490000     1.000000
    0.500000   -0.500000   -0.500000     1.000000
    0.505814   -0.482558   -0.494186     1.000000
    0.511628   -0.465116   -0.488372     1.000000
    0.517442   -0.447674   -0.482558     1.000000
    0.523256   -0.430233   -0.476744     1.000000
    0.529070   -0.412791   -0.470930     1.000000
    0.534884   -0.395349   -0.465116     1.000000
    0.540698   -0.377907   -0.459302     1.000000
    0.546512   -0.360465   -0.453488     1.000000
    0.552326   -0.343023   -0.447674     1.000000
    0.558140   -0.325581   -0.441860     1.000000
    0.563953   -0.308140   -0.436047     1.000000
    0.569767   -0.290698   -0.430233     1.000000
    0.575581   -0.273256   -0.424419     1.000000
    0.581395   -0.255814   -0.418605     1.000000
    0.587209   -0.238372   -0.412791     1.000000
    0.593023   -0.220930   -0.406977     1.000000
    0.598837   -0.203488   -0.401163     1.000000
    0.604651   -0.186047   -0.395349     1.000000
    0.610465   -0.168605   -0.389535     1.000000
    0.616279   -0.151163   -0.383721     1.000000
    0.622093   -0.133721   -0.377907     1.000000
    0.627907   -0.116279   -0.372093     1.000000
    0.633721   -0.098837   -0.366279     1.000000
    0.639535   -0.081395   -0.360465     1.000000
    0.645349   -0.063953   -0.354651     1.000000
    0.651163   -0.046512   -0.348837     1.000000
    0.656977   -0.029070   -0.343023     1.000000
    0.662791   -0.011628   -0.337209     1.000000
    0.668605    0.005814   -0.331395     1.000000
    0.674419    0.023256   -0.325581     1.000000
    0.680233    0.040698   -0.319767     1.000000
    0.686047    0.058140   -0.313953     1.000000
    0.691860    0.075581   -0.308140     1.000000
    0.697674    0.093023   -0.302326     1.000000
    0.703488    0.110465   -0.296512     1.000000
    0.709302    0.127907   -0.290698     1.000000
    0.715116    0.145349   -0.284884     1.000000
    0.720930    0.162791   -0.279070     1.000000
    0.726744    0.180233   -0.273256     1.000000
    0.732558    0.197674   -0.267442     1.000000
    0.738372    0.215116   -0.261628     1.000000
    0.744186    0.232558   -0.255814     1.000000
    0.750000    0.250000   -0.250000     1.000000
    0.740000    0.240000   -0.260000     1.000000
    0.730000    0.230000   -0.270000     1.000000
    0.720000    0.220000   -0.280000     1.000000
    0.710000    0.210000   -0.290000     1.000000
    0.700000    0.200000   -0.300000     1.000000
    0.690000    0.190000   -0.310000     1.000000
    0.680000    0.180000   -0.320000     1.000000
    0.670000    0.170000   -0.330000     1.000000
    0.660000    0.160000   -0.340000     1.000000
    0.650000    0.150000   -0.350000     1.000000
    0.640000    0.140000   -0.360000     1.000000
    0.630000    0.130000   -0.370000     1.000000
    0.620000    0.120000   -0.380000     1.000000
    0.610000    0.110000   -0.390000     1.000000
    0.600000    0.100000   -0.400000     1.000000
    0.590000    0.090000   -0.410000     1.000000
    0.580000    0.080000   -0.420000     1.000000
    0.570000    0.070000   -0.430000     1.000000
    0.560000    0.060000   -0.440000     1.000000
    0.550000    0.050000   -0.450000     1.000000
    0.540000    0.040000   -0.460000     1.000000
    0.530000    0.030000   -0.470000     1.000000
    0.520000    0.020000   -0.480000     1.000000
    0.510000    0.010000   -0.490000     1.000000
    0.500000    0.000000   -0.500000     1.000000
    0.485714    0.000000   -0.485714     1.000000
    0.471429    0.000000   -0.471429     1.000000
    0.457143    0.000000   -0.457143     1.000000
    0.442857    0.000000   -0.442857     1.000000
    0.428571    0.000000   -0.428571     1.000000
    0.414286    0.000000   -0.414286     1.000000
    0.400000    0.000000   -0.400000     1.000000
    0.385714    0.000000   -0.385714     1.000000
    0.371429    0.000000   -0.371429     1.000000
    0.357143    0.000000   -0.357143     1.000000
    0.342857    0.000000   -0.342857     1.000000
    0.328571    0.000000   -0.328571     1.000000
    0.314286    0.000000   -0.314286     1.000000
    0.300000    0.000000   -0.300000     1.000000
    0.285714    0.000000   -0.285714     1.000000
    0.271429    0.000000   -0.271429     1.000000
    0.257143    0.000000   -0.257143     1.000000
    0.242857    0.000000   -0.242857     1.000000
    0.228571    0.000000   -0.228571     1.000000
    0.214286    0.000000   -0.214286     1.000000
    0.200000    0.000000   -0.200000     1.000000
    0.185714    0.000000   -0.185714     1.000000
    0.171429    0.000000   -0.171429     1.000000
    0.157143    0.000000   -0.157143     1.000000
    0.142857    0.000000   -0.142857     1.000000
    0.128571    0.000000   -0.128571     1.000000
    0.114286    0.000000   -0.114286     1.000000
    0.100000    0.000000   -0.100000     1.000000
    0.085714    0.000000   -0.085714     1.000000
    0.071429    0.000000   -0.071429     1.000000
    0.057143    0.000000   -0.057143     1.000000
    0.042857    0.000000   -0.042857     1.000000
    0.028571    0.000000   -0.028571     1.000000
    0.014286    0.000000   -0.014286     1.000000
    0.000000    0.000000    0.000000     1.000000
    0.010000    0.010000    0.010000     1.000000
    0.020000    0.020000    0.020000     1.000000
    0.030000    0.030000    0.030000     1.000000
    0.040000    0.040000    0.040000     1.000000
    0.050000    0.050000    0.050000     1.000000
    0.060000    0.060000    0.060000     1.000000
    0.070000    0.070000    0.070000     1.000000
    0.080000    0.080000    0.080000     1.000000
    0.090000    0.090000    0.090000     1.000000
    0.100000    0.100000    0.100000     1.000000
    0.110000    0.110000    0.110000     1.000000
    0.120000    0.120000    0.120000     1.000000
    0.130000    0.130000    0.130000     1.000000
    0.140000    0.140000    0.140000     1.000000
    0.150000    0.150000    0.150000     1.000000
    0.160000    0.160000    0.160000     1.000000
    0.170000    0.170000    0.170000     1.000000
    0.180000    0.180000    0.180000     1.000000
    0.190000    0.190000    0.190000     1.000000
    0.200000    0.200000    0.200000     1.000000
    0.210000    0.210000    0.210000     1.000000
    0.220000    0.220000    0.220000     1.000000
    0.230000    0.230000    0.230000     1.000000
    0.240000    0.240000    0.240000     1.000000
    0.250000    0.250000    0.250000     1.000000
    0.260000    0.260000    0.260000     1.000000
    0.270000    0.270000    0.270000     1.000000
    0.280000    0.280000    0.280000     1.000000
    0.290000    0.290000    0.290000     1.000000
    0.300000    0.300000    0.300000     1.000000
    0.310000    0.310000    0.310000     1.000000
    0.320000    0.320000    0.320000     1.000000
    0.330000    0.330000    0.330000     1.000000
    0.340000    0.340000    0.340000     1.000000
    0.350000    0.350000    0.350000     1.000000
    0.360000    0.360000    0.360000     1.000000
    0.370000    0.370000    0.370000     1.000000
    0.380000    0.380000    0.380000     1.000000
    0.390000    0.390000    0.390000     1.000000
    0.400000    0.400000    0.400000     1.000000
    0.410000    0.410000    0.410000     1.000000
    0.420000    0.420000    0.420000     1.000000
    0.430000    0.430000    0.430000     1.000000
    0.440000    0.440000    0.440000     1.000000
    0.450000    0.450000    0.450000     1.000000
    0.460000    0.460000    0.460000     1.000000
    0.470000    0.470000    0.470000     1.000000
    0.480000    0.480000    0.480000     1.000000
    0.490000    0.490000    0.490000     1.000000
    0.500000    0.500000    0.500000     1.000000
    0.500000    0.500000    0.500000     1.000000
    0.500000    0.485714    0.485714     1.000000
    0.500000    0.471429    0.471429     1.000000
    0.500000    0.457143    0.457143     1.000000
    0.500000    0.442857    0.442857     1.000000
    0.500000    0.428571    0.428571     1.000000
    0.500000    0.414286    0.414286     1.000000
    0.500000    0.400000    0.400000     1.000000
    0.500000    0.385714    0.385714     1.000000
    0.500000    0.371429    0.371429     1.000000
    0.500000    0.357143    0.357143     1.000000
    0.500000    0.342857    0.342857     1.000000
    0.500000    0.328571    0.328571     1.000000
    0.500000    0.314286    0.314286     1.000000
    0.500000    0.300000    0.300000     1.000000
    0.500000    0.285714    0.285714     1.000000
    0.500000    0.271429    0.271429     1.000000
    0.500000    0.257143    0.257143     1.000000
    0.500000    0.242857    0.242857     1.000000
    0.500000    0.228571    0.228571     1.000000
    0.500000    0.214286    0.214286     1.000000
    0.500000    0.200000    0.200000     1.000000
    0.500000    0.185714    0.185714     1.000000
    0.500000    0.171429    0.171429     1.000000
    0.500000    0.157143    0.157143     1.000000
    0.500000    0.142857    0.142857     1.000000
    0.500000    0.128571    0.128571     1.000000
    0.500000    0.114286    0.114286     1.000000
    0.500000    0.100000    0.100000     1.000000
    0.500000    0.085714    0.085714     1.000000
    0.500000    0.071429    0.071429     1.000000
    0.500000    0.057143    0.057143     1.000000
    0.500000    0.042857    0.042857     1.000000
    0.500000    0.028571    0.028571     1.000000
    0.500000    0.014286    0.014286     1.000000
    0.500000    0.000000    0.000000     1.000000
    0.500000    0.000000    0.000000     1.000000
    0.485714    0.000000    0.000000     1.000000
    0.471429    0.000000    0.000000     1.000000
    0.457143    0.000000    0.000000     1.000000
    0.442857    0.000000    0.000000     1.000000
    0.428571    0.000000    0.000000     1.000000
    0.414286    0.000000    0.000000     1.000000
    0.400000    0.000000    0.000000     1.000000
    0.385714    0.000000    0.000000     1.000000
    0.371429    0.000000    0.000000     1.000000
    0.357143    0.000000    0.000000     1.000000
    0.342857    0.000000    0.000000     1.000000
    0.328571    0.000000    0.000000     1.000000
    0.314286    0.000000    0.000000     1.000000
    0.300000    0.000000    0.000000     1.000000
    0.285714    0.000000    0.000000     1.000000
    0.271429    0.000000    0.000000     1.000000
    0.257143    0.000000    0.000000     1.000000
    0.242857    0.000000    0.000000     1.000000
    0.228571    0.000000    0.000000     1.000000
    0.214286    0.000000    0.000000     1.000000
    0.200000    0.000000    0.000000     1.000000
    0.185714    0.000000    0.000000     1.000000
    0.171429    0.000000    0.000000     1.000000
    0.157143    0.000000    0.000000     1.000000
    0.142857    0.000000    0.000000     1.000000
    0.128571    0.000000    0.000000     1.000000
    0.114286    0.000000    0.000000     1.000000
    0.100000    0.000000    0.000000     1.000000
    0.085714    0.000000    0.000000     1.000000
    0.071429    0.000000    0.000000     1.000000
    0.057143    0.000000    0.000000     1.000000
    0.042857    0.000000    0.000000     1.000000
    0.028571    0.000000    0.000000     1.000000
    0.014286    0.000000    0.000000     1.000000
    0.000000    0.000000    0.000000     1.000000
    0.017442    0.005814   -0.005814     1.000000
    0.034884    0.011628   -0.011628     1.000000
    0.052326    0.017442   -0.017442     1.000000
    0.069767    0.023256   -0.023256     1.000000
    0.087209    0.029070   -0.029070     1.000000
    0.104651    0.034884   -0.034884     1.000000
    0.122093    0.040698   -0.040698     1.000000
    0.139535    0.046512   -0.046512     1.000000
    0.156977    0.052326   -0.052326     1.000000
    0.174419    0.058140   -0.058140     1.000000
    0.191860    0.063953   -0.063953     1.000000
    0.209302    0.069767   -0.069767     1.000000
    0.226744    0.075581   -0.075581     1.000000
    0.244186    0.081395   -0.081395     1.000000
    0.261628    0.087209   -0.087209     1.000000
    0.279070    0.093023   -0.093023     1.000000
    0.296512    0.098837   -0.098837     1.000000
    0.313953    0.104651   -0.104651     1.000000
    0.331395    0.110465   -0.110465     1.000000
    0.348837    0.116279   -0.116279     1.000000
    0.366279    0.122093   -0.122093     1.000000
    0.383721    0.127907   -0.127907     1.000000
    0.401163    0.133721   -0.133721     1.000000
    0.418605    0.139535   -0.139535     1.000000
    0.436047    0.145349   -0.145349     1.000000
    0.453488    0.151163   -0.151163     1.000000
    0.470930    0.156977   -0.156977     1.000000
    0.488372    0.162791   -0.162791     1.000000
    0.505814    0.168605   -0.168605     1.000000
    0.523256    0.174419   -0.174419     1.000000
    0.540698    0.180233   -0.180233     1.000000
    0.558140    0.186047   -0.186047     1.000000
    0.575581    0.191860   -0.191860     1.000000
    0.593023    0.197674   -0.197674     1.000000
    0.610465    0.203488   -0.203488     1.000000
    0.627907    0.209302   -0.209302     1.000000
    0.645349    0.215116   -0.215116     1.000000
    0.662791    0.220930   -0.220930     1.000000
    0.680233    0.226744   -0.226744     1.000000
    0.697674    0.232558   -0.232558     1.000000
    0.715116    0.238372   -0.238372     1.000000
    0.732558    0.244186   -0.244186     1.000000
    0.750000    0.250000   -0.250000     1.000000
    0.740000    0.240000   -0.240000     1.000000
    0.730000    0.230000   -0.230000     1.000000
    0.720000    0.220000   -0.220000     1.000000
    0.710000    0.210000   -0.210000     1.000000
    0.700000    0.200000   -0.200000     1.000000
    0.690000    0.190000   -0.190000     1.000000
    0.680000    0.180000   -0.180000     1.000000
    0.670000    0.170000   -0.170000     1.000000
    0.660000    0.160000   -0.160000     1.000000
    0.650000    0.150000   -0.150000     1.000000
    0.640000    0.140000   -0.140000     1.000000
    0.630000    0.130000   -0.130000     1.000000
    0.620000    0.120000   -0.120000     1.000000
    0.610000    0.110000   -0.110000     1.000000
    0.600000    0.100000   -0.100000     1.000000
    0.590000    0.090000   -0.090000     1.000000
    0.580000    0.080000   -0.080000     1.000000
    0.570000    0.070000   -0.070000     1.000000
    0.560000    0.060000   -0.060000     1.000000
    0.550000    0.050000   -0.050000     1.000000
    0.540000    0.040000   -0.040000     1.000000
    0.530000    0.030000   -0.030000     1.000000
    0.520000    0.020000   -0.020000     1.000000
    0.510000    0.010000   -0.010000     1.000000
    0.500000    0.000000    0.000000     1.000000
