&CONTROL
  calculation = 'scf'
  restart_mode='from_scratch',
  outdir = './out'
  prefix = 'cri3'
  pseudo_dir = '../../pseudo/'
  verbosity = 'high'
/
&SYSTEM
  ibrav = 4
  assume_isolated = '2D'
  celldm(1) = 12.88253407
  celldm(3) = 2.945276712
  nat = 8
  ntyp = 2
  ecutwfc = 94
  occupations = 'smearing'
  smearing = 'mv'
  degauss = 0.001
  starting_magnetization(1) = 0.5
  nspin = 2
/
&ELECTRONS
  conv_thr =  1.d-10
  mixing_beta= 0.4
  diagonalization = 'ppcg'
/
ATOMIC_SPECIES
Cr    51.996      cr_pbesol_v1.5.uspp.F.UPF
I     126.9045    I.pbesol-n-kjpaw_psl.0.2.UPF

ATOMIC_POSITIONS crystal
Cr            0.3333333333        0.6666666667        0.0000000000
Cr            0.6666666667        0.3333333333        0.0000000000
I             0.0000000000        0.3541077360        0.0769313053
I             0.0000000000        0.6458922640       -0.0769312753
I             0.3541077360        0.3541077360       -0.0769312753
I             0.6458922640        0.6458922640        0.0769313053
I             0.3541077360        0.0000000000        0.0769313053
I             0.6458922640        0.0000000000       -0.0769312753

K_POINTS automatic
9 9 1 0 0 0
