num_bands         =   15
num_wann          =   5

dis_froz_max      =  2
dis_num_iter      =  1000
num_iter          =  1000
conv_tol =   1.0000000000d-8
conv_window = 3

fermi_energy = -0.4602

guiding_centres = true

bands_plot = true

begin kpoint_path
G 0.0000000000     0.0000000000     0.0000000000  M 0.5000000000    -0.5000000000     0.0000000000
M 0.5000000000    -0.5000000000     0.0000000000  K 0.6666666667    -0.3333333333     0.0000000000
K 0.6666666667    -0.3333333333     0.0000000000  G 0.0000000000     0.0000000000     0.0000000000
end kpoint_path

wannier_plot = true
wannier_plot_supercell = 3
wvfn_formatted = true

begin atoms_frac
C    0.0000000000    0.0000000000    0.0
C    0.3333333333    0.6666666667    0.0
end atoms_frac

begin projections
C:pz
f=0.16666667,0.33333333,0.0:s
f=0.66666667,0.83333333,0.0:s
f=0.16666667,0.83333333,0.0:s
end projections

begin unit_cell_cart
  2.1304215583   -1.2299994602    0.0000000000
  0.0000000000    2.4599989204    0.0000000000
  0.0000000000    0.0000000000   10.0000000000
end unit_cell_cart

mp_grid      = 3 3 1

begin kpoints
  0.00000000  0.00000000  0.00000000  1.111111e-01
  0.00000000  0.33333333  0.00000000  1.111111e-01
  0.00000000  0.66666667  0.00000000  1.111111e-01
  0.33333333  0.00000000  0.00000000  1.111111e-01
  0.33333333  0.33333333  0.00000000  1.111111e-01
  0.33333333  0.66666667  0.00000000  1.111111e-01
  0.66666667  0.00000000  0.00000000  1.111111e-01
  0.66666667  0.33333333  0.00000000  1.111111e-01
  0.66666667  0.66666667  0.00000000  1.111111e-01
end kpoints
