&INPUTPP
  outdir = './out/'
  prefix = 'gra'
  seedname = 'graphene'
  spn_formatted = .true.
  write_unk = .true.
  wvfn_formatted = .true.
! reduce_unk = .true.
/
