bands_plot = .true.
conv_tol =   2.0000000000d-07
conv_window = 3
dis_conv_tol =   2.0000000000d-07
dis_froz_max =   8.8019822868d+00
dis_num_iter = 4000
fermi_energy =   6.5724000000d+00
mp_grid = 11, 11, 11
num_bands = 4
num_cg_steps = 200
num_iter = 4000
num_wann = 4
spn_formatted = .true.
wannier_plot = .true.
restart = plot
wannier_plot_format = cube
wannier_plot_supercell = 4
wvfn_formatted = .true.

begin atoms_cart
ang
Si         0.0000000000       0.0000000000       2.7152650000 
Si         1.3576325000       4.0728975000       1.3576325000 
end atoms_cart

begin kpoint_path
G  0.000 0.000 0.000    X  0.500 0.000 0.500
X  0.500 0.000 0.500    U  0.625 0.250 0.625
U  0.625 0.250 0.625    K  0.375 0.375 0.750
K  0.375 0.375 0.750    G  0.000 0.000 0.000
G  0.000 0.000 0.000    L  0.500 0.500 0.500
L  0.500 0.500 0.500    W  0.500 0.250 0.750
W  0.500 0.250 0.750    X  0.500 0.000 0.500
end kpoint_path

begin kpoints
      0.0000000000       0.0000000000       0.0000000000
      0.0000000000       0.0000000000       0.0909090909
      0.0000000000       0.0000000000       0.1818181818
      0.0000000000       0.0000000000       0.2727272727
      0.0000000000       0.0000000000       0.3636363636
      0.0000000000       0.0000000000       0.4545454545
      0.0000000000       0.0000000000       0.5454545455
      0.0000000000       0.0000000000       0.6363636364
      0.0000000000       0.0000000000       0.7272727273
      0.0000000000       0.0000000000       0.8181818182
      0.0000000000       0.0000000000       0.9090909091
      0.0000000000       0.0909090909       0.0000000000
      0.0000000000       0.0909090909       0.0909090909
      0.0000000000       0.0909090909       0.1818181818
      0.0000000000       0.0909090909       0.2727272727
      0.0000000000       0.0909090909       0.3636363636
      0.0000000000       0.0909090909       0.4545454545
      0.0000000000       0.0909090909       0.5454545455
      0.0000000000       0.0909090909       0.6363636364
      0.0000000000       0.0909090909       0.7272727273
      0.0000000000       0.0909090909       0.8181818182
      0.0000000000       0.0909090909       0.9090909091
      0.0000000000       0.1818181818       0.0000000000
      0.0000000000       0.1818181818       0.0909090909
      0.0000000000       0.1818181818       0.1818181818
      0.0000000000       0.1818181818       0.2727272727
      0.0000000000       0.1818181818       0.3636363636
      0.0000000000       0.1818181818       0.4545454545
      0.0000000000       0.1818181818       0.5454545455
      0.0000000000       0.1818181818       0.6363636364
      0.0000000000       0.1818181818       0.7272727273
      0.0000000000       0.1818181818       0.8181818182
      0.0000000000       0.1818181818       0.9090909091
      0.0000000000       0.2727272727       0.0000000000
      0.0000000000       0.2727272727       0.0909090909
      0.0000000000       0.2727272727       0.1818181818
      0.0000000000       0.2727272727       0.2727272727
      0.0000000000       0.2727272727       0.3636363636
      0.0000000000       0.2727272727       0.4545454545
      0.0000000000       0.2727272727       0.5454545455
      0.0000000000       0.2727272727       0.6363636364
      0.0000000000       0.2727272727       0.7272727273
      0.0000000000       0.2727272727       0.8181818182
      0.0000000000       0.2727272727       0.9090909091
      0.0000000000       0.3636363636       0.0000000000
      0.0000000000       0.3636363636       0.0909090909
      0.0000000000       0.3636363636       0.1818181818
      0.0000000000       0.3636363636       0.2727272727
      0.0000000000       0.3636363636       0.3636363636
      0.0000000000       0.3636363636       0.4545454545
      0.0000000000       0.3636363636       0.5454545455
      0.0000000000       0.3636363636       0.6363636364
      0.0000000000       0.3636363636       0.7272727273
      0.0000000000       0.3636363636       0.8181818182
      0.0000000000       0.3636363636       0.9090909091
      0.0000000000       0.4545454545       0.0000000000
      0.0000000000       0.4545454545       0.0909090909
      0.0000000000       0.4545454545       0.1818181818
      0.0000000000       0.4545454545       0.2727272727
      0.0000000000       0.4545454545       0.3636363636
      0.0000000000       0.4545454545       0.4545454545
      0.0000000000       0.4545454545       0.5454545455
      0.0000000000       0.4545454545       0.6363636364
      0.0000000000       0.4545454545       0.7272727273
      0.0000000000       0.4545454545       0.8181818182
      0.0000000000       0.4545454545       0.9090909091
      0.0000000000       0.5454545455       0.0000000000
      0.0000000000       0.5454545455       0.0909090909
      0.0000000000       0.5454545455       0.1818181818
      0.0000000000       0.5454545455       0.2727272727
      0.0000000000       0.5454545455       0.3636363636
      0.0000000000       0.5454545455       0.4545454545
      0.0000000000       0.5454545455       0.5454545455
      0.0000000000       0.5454545455       0.6363636364
      0.0000000000       0.5454545455       0.7272727273
      0.0000000000       0.5454545455       0.8181818182
      0.0000000000       0.5454545455       0.9090909091
      0.0000000000       0.6363636364       0.0000000000
      0.0000000000       0.6363636364       0.0909090909
      0.0000000000       0.6363636364       0.1818181818
      0.0000000000       0.6363636364       0.2727272727
      0.0000000000       0.6363636364       0.3636363636
      0.0000000000       0.6363636364       0.4545454545
      0.0000000000       0.6363636364       0.5454545455
      0.0000000000       0.6363636364       0.6363636364
      0.0000000000       0.6363636364       0.7272727273
      0.0000000000       0.6363636364       0.8181818182
      0.0000000000       0.6363636364       0.9090909091
      0.0000000000       0.7272727273       0.0000000000
      0.0000000000       0.7272727273       0.0909090909
      0.0000000000       0.7272727273       0.1818181818
      0.0000000000       0.7272727273       0.2727272727
      0.0000000000       0.7272727273       0.3636363636
      0.0000000000       0.7272727273       0.4545454545
      0.0000000000       0.7272727273       0.5454545455
      0.0000000000       0.7272727273       0.6363636364
      0.0000000000       0.7272727273       0.7272727273
      0.0000000000       0.7272727273       0.8181818182
      0.0000000000       0.7272727273       0.9090909091
      0.0000000000       0.8181818182       0.0000000000
      0.0000000000       0.8181818182       0.0909090909
      0.0000000000       0.8181818182       0.1818181818
      0.0000000000       0.8181818182       0.2727272727
      0.0000000000       0.8181818182       0.3636363636
      0.0000000000       0.8181818182       0.4545454545
      0.0000000000       0.8181818182       0.5454545455
      0.0000000000       0.8181818182       0.6363636364
      0.0000000000       0.8181818182       0.7272727273
      0.0000000000       0.8181818182       0.8181818182
      0.0000000000       0.8181818182       0.9090909091
      0.0000000000       0.9090909091       0.0000000000
      0.0000000000       0.9090909091       0.0909090909
      0.0000000000       0.9090909091       0.1818181818
      0.0000000000       0.9090909091       0.2727272727
      0.0000000000       0.9090909091       0.3636363636
      0.0000000000       0.9090909091       0.4545454545
      0.0000000000       0.9090909091       0.5454545455
      0.0000000000       0.9090909091       0.6363636364
      0.0000000000       0.9090909091       0.7272727273
      0.0000000000       0.9090909091       0.8181818182
      0.0000000000       0.9090909091       0.9090909091
      0.0909090909       0.0000000000       0.0000000000
      0.0909090909       0.0000000000       0.0909090909
      0.0909090909       0.0000000000       0.1818181818
      0.0909090909       0.0000000000       0.2727272727
      0.0909090909       0.0000000000       0.3636363636
      0.0909090909       0.0000000000       0.4545454545
      0.0909090909       0.0000000000       0.5454545455
      0.0909090909       0.0000000000       0.6363636364
      0.0909090909       0.0000000000       0.7272727273
      0.0909090909       0.0000000000       0.8181818182
      0.0909090909       0.0000000000       0.9090909091
      0.0909090909       0.0909090909       0.0000000000
      0.0909090909       0.0909090909       0.0909090909
      0.0909090909       0.0909090909       0.1818181818
      0.0909090909       0.0909090909       0.2727272727
      0.0909090909       0.0909090909       0.3636363636
      0.0909090909       0.0909090909       0.4545454545
      0.0909090909       0.0909090909       0.5454545455
      0.0909090909       0.0909090909       0.6363636364
      0.0909090909       0.0909090909       0.7272727273
      0.0909090909       0.0909090909       0.8181818182
      0.0909090909       0.0909090909       0.9090909091
      0.0909090909       0.1818181818       0.0000000000
      0.0909090909       0.1818181818       0.0909090909
      0.0909090909       0.1818181818       0.1818181818
      0.0909090909       0.1818181818       0.2727272727
      0.0909090909       0.1818181818       0.3636363636
      0.0909090909       0.1818181818       0.4545454545
      0.0909090909       0.1818181818       0.5454545455
      0.0909090909       0.1818181818       0.6363636364
      0.0909090909       0.1818181818       0.7272727273
      0.0909090909       0.1818181818       0.8181818182
      0.0909090909       0.1818181818       0.9090909091
      0.0909090909       0.2727272727       0.0000000000
      0.0909090909       0.2727272727       0.0909090909
      0.0909090909       0.2727272727       0.1818181818
      0.0909090909       0.2727272727       0.2727272727
      0.0909090909       0.2727272727       0.3636363636
      0.0909090909       0.2727272727       0.4545454545
      0.0909090909       0.2727272727       0.5454545455
      0.0909090909       0.2727272727       0.6363636364
      0.0909090909       0.2727272727       0.7272727273
      0.0909090909       0.2727272727       0.8181818182
      0.0909090909       0.2727272727       0.9090909091
      0.0909090909       0.3636363636       0.0000000000
      0.0909090909       0.3636363636       0.0909090909
      0.0909090909       0.3636363636       0.1818181818
      0.0909090909       0.3636363636       0.2727272727
      0.0909090909       0.3636363636       0.3636363636
      0.0909090909       0.3636363636       0.4545454545
      0.0909090909       0.3636363636       0.5454545455
      0.0909090909       0.3636363636       0.6363636364
      0.0909090909       0.3636363636       0.7272727273
      0.0909090909       0.3636363636       0.8181818182
      0.0909090909       0.3636363636       0.9090909091
      0.0909090909       0.4545454545       0.0000000000
      0.0909090909       0.4545454545       0.0909090909
      0.0909090909       0.4545454545       0.1818181818
      0.0909090909       0.4545454545       0.2727272727
      0.0909090909       0.4545454545       0.3636363636
      0.0909090909       0.4545454545       0.4545454545
      0.0909090909       0.4545454545       0.5454545455
      0.0909090909       0.4545454545       0.6363636364
      0.0909090909       0.4545454545       0.7272727273
      0.0909090909       0.4545454545       0.8181818182
      0.0909090909       0.4545454545       0.9090909091
      0.0909090909       0.5454545455       0.0000000000
      0.0909090909       0.5454545455       0.0909090909
      0.0909090909       0.5454545455       0.1818181818
      0.0909090909       0.5454545455       0.2727272727
      0.0909090909       0.5454545455       0.3636363636
      0.0909090909       0.5454545455       0.4545454545
      0.0909090909       0.5454545455       0.5454545455
      0.0909090909       0.5454545455       0.6363636364
      0.0909090909       0.5454545455       0.7272727273
      0.0909090909       0.5454545455       0.8181818182
      0.0909090909       0.5454545455       0.9090909091
      0.0909090909       0.6363636364       0.0000000000
      0.0909090909       0.6363636364       0.0909090909
      0.0909090909       0.6363636364       0.1818181818
      0.0909090909       0.6363636364       0.2727272727
      0.0909090909       0.6363636364       0.3636363636
      0.0909090909       0.6363636364       0.4545454545
      0.0909090909       0.6363636364       0.5454545455
      0.0909090909       0.6363636364       0.6363636364
      0.0909090909       0.6363636364       0.7272727273
      0.0909090909       0.6363636364       0.8181818182
      0.0909090909       0.6363636364       0.9090909091
      0.0909090909       0.7272727273       0.0000000000
      0.0909090909       0.7272727273       0.0909090909
      0.0909090909       0.7272727273       0.1818181818
      0.0909090909       0.7272727273       0.2727272727
      0.0909090909       0.7272727273       0.3636363636
      0.0909090909       0.7272727273       0.4545454545
      0.0909090909       0.7272727273       0.5454545455
      0.0909090909       0.7272727273       0.6363636364
      0.0909090909       0.7272727273       0.7272727273
      0.0909090909       0.7272727273       0.8181818182
      0.0909090909       0.7272727273       0.9090909091
      0.0909090909       0.8181818182       0.0000000000
      0.0909090909       0.8181818182       0.0909090909
      0.0909090909       0.8181818182       0.1818181818
      0.0909090909       0.8181818182       0.2727272727
      0.0909090909       0.8181818182       0.3636363636
      0.0909090909       0.8181818182       0.4545454545
      0.0909090909       0.8181818182       0.5454545455
      0.0909090909       0.8181818182       0.6363636364
      0.0909090909       0.8181818182       0.7272727273
      0.0909090909       0.8181818182       0.8181818182
      0.0909090909       0.8181818182       0.9090909091
      0.0909090909       0.9090909091       0.0000000000
      0.0909090909       0.9090909091       0.0909090909
      0.0909090909       0.9090909091       0.1818181818
      0.0909090909       0.9090909091       0.2727272727
      0.0909090909       0.9090909091       0.3636363636
      0.0909090909       0.9090909091       0.4545454545
      0.0909090909       0.9090909091       0.5454545455
      0.0909090909       0.9090909091       0.6363636364
      0.0909090909       0.9090909091       0.7272727273
      0.0909090909       0.9090909091       0.8181818182
      0.0909090909       0.9090909091       0.9090909091
      0.1818181818       0.0000000000       0.0000000000
      0.1818181818       0.0000000000       0.0909090909
      0.1818181818       0.0000000000       0.1818181818
      0.1818181818       0.0000000000       0.2727272727
      0.1818181818       0.0000000000       0.3636363636
      0.1818181818       0.0000000000       0.4545454545
      0.1818181818       0.0000000000       0.5454545455
      0.1818181818       0.0000000000       0.6363636364
      0.1818181818       0.0000000000       0.7272727273
      0.1818181818       0.0000000000       0.8181818182
      0.1818181818       0.0000000000       0.9090909091
      0.1818181818       0.0909090909       0.0000000000
      0.1818181818       0.0909090909       0.0909090909
      0.1818181818       0.0909090909       0.1818181818
      0.1818181818       0.0909090909       0.2727272727
      0.1818181818       0.0909090909       0.3636363636
      0.1818181818       0.0909090909       0.4545454545
      0.1818181818       0.0909090909       0.5454545455
      0.1818181818       0.0909090909       0.6363636364
      0.1818181818       0.0909090909       0.7272727273
      0.1818181818       0.0909090909       0.8181818182
      0.1818181818       0.0909090909       0.9090909091
      0.1818181818       0.1818181818       0.0000000000
      0.1818181818       0.1818181818       0.0909090909
      0.1818181818       0.1818181818       0.1818181818
      0.1818181818       0.1818181818       0.2727272727
      0.1818181818       0.1818181818       0.3636363636
      0.1818181818       0.1818181818       0.4545454545
      0.1818181818       0.1818181818       0.5454545455
      0.1818181818       0.1818181818       0.6363636364
      0.1818181818       0.1818181818       0.7272727273
      0.1818181818       0.1818181818       0.8181818182
      0.1818181818       0.1818181818       0.9090909091
      0.1818181818       0.2727272727       0.0000000000
      0.1818181818       0.2727272727       0.0909090909
      0.1818181818       0.2727272727       0.1818181818
      0.1818181818       0.2727272727       0.2727272727
      0.1818181818       0.2727272727       0.3636363636
      0.1818181818       0.2727272727       0.4545454545
      0.1818181818       0.2727272727       0.5454545455
      0.1818181818       0.2727272727       0.6363636364
      0.1818181818       0.2727272727       0.7272727273
      0.1818181818       0.2727272727       0.8181818182
      0.1818181818       0.2727272727       0.9090909091
      0.1818181818       0.3636363636       0.0000000000
      0.1818181818       0.3636363636       0.0909090909
      0.1818181818       0.3636363636       0.1818181818
      0.1818181818       0.3636363636       0.2727272727
      0.1818181818       0.3636363636       0.3636363636
      0.1818181818       0.3636363636       0.4545454545
      0.1818181818       0.3636363636       0.5454545455
      0.1818181818       0.3636363636       0.6363636364
      0.1818181818       0.3636363636       0.7272727273
      0.1818181818       0.3636363636       0.8181818182
      0.1818181818       0.3636363636       0.9090909091
      0.1818181818       0.4545454545       0.0000000000
      0.1818181818       0.4545454545       0.0909090909
      0.1818181818       0.4545454545       0.1818181818
      0.1818181818       0.4545454545       0.2727272727
      0.1818181818       0.4545454545       0.3636363636
      0.1818181818       0.4545454545       0.4545454545
      0.1818181818       0.4545454545       0.5454545455
      0.1818181818       0.4545454545       0.6363636364
      0.1818181818       0.4545454545       0.7272727273
      0.1818181818       0.4545454545       0.8181818182
      0.1818181818       0.4545454545       0.9090909091
      0.1818181818       0.5454545455       0.0000000000
      0.1818181818       0.5454545455       0.0909090909
      0.1818181818       0.5454545455       0.1818181818
      0.1818181818       0.5454545455       0.2727272727
      0.1818181818       0.5454545455       0.3636363636
      0.1818181818       0.5454545455       0.4545454545
      0.1818181818       0.5454545455       0.5454545455
      0.1818181818       0.5454545455       0.6363636364
      0.1818181818       0.5454545455       0.7272727273
      0.1818181818       0.5454545455       0.8181818182
      0.1818181818       0.5454545455       0.9090909091
      0.1818181818       0.6363636364       0.0000000000
      0.1818181818       0.6363636364       0.0909090909
      0.1818181818       0.6363636364       0.1818181818
      0.1818181818       0.6363636364       0.2727272727
      0.1818181818       0.6363636364       0.3636363636
      0.1818181818       0.6363636364       0.4545454545
      0.1818181818       0.6363636364       0.5454545455
      0.1818181818       0.6363636364       0.6363636364
      0.1818181818       0.6363636364       0.7272727273
      0.1818181818       0.6363636364       0.8181818182
      0.1818181818       0.6363636364       0.9090909091
      0.1818181818       0.7272727273       0.0000000000
      0.1818181818       0.7272727273       0.0909090909
      0.1818181818       0.7272727273       0.1818181818
      0.1818181818       0.7272727273       0.2727272727
      0.1818181818       0.7272727273       0.3636363636
      0.1818181818       0.7272727273       0.4545454545
      0.1818181818       0.7272727273       0.5454545455
      0.1818181818       0.7272727273       0.6363636364
      0.1818181818       0.7272727273       0.7272727273
      0.1818181818       0.7272727273       0.8181818182
      0.1818181818       0.7272727273       0.9090909091
      0.1818181818       0.8181818182       0.0000000000
      0.1818181818       0.8181818182       0.0909090909
      0.1818181818       0.8181818182       0.1818181818
      0.1818181818       0.8181818182       0.2727272727
      0.1818181818       0.8181818182       0.3636363636
      0.1818181818       0.8181818182       0.4545454545
      0.1818181818       0.8181818182       0.5454545455
      0.1818181818       0.8181818182       0.6363636364
      0.1818181818       0.8181818182       0.7272727273
      0.1818181818       0.8181818182       0.8181818182
      0.1818181818       0.8181818182       0.9090909091
      0.1818181818       0.9090909091       0.0000000000
      0.1818181818       0.9090909091       0.0909090909
      0.1818181818       0.9090909091       0.1818181818
      0.1818181818       0.9090909091       0.2727272727
      0.1818181818       0.9090909091       0.3636363636
      0.1818181818       0.9090909091       0.4545454545
      0.1818181818       0.9090909091       0.5454545455
      0.1818181818       0.9090909091       0.6363636364
      0.1818181818       0.9090909091       0.7272727273
      0.1818181818       0.9090909091       0.8181818182
      0.1818181818       0.9090909091       0.9090909091
      0.2727272727       0.0000000000       0.0000000000
      0.2727272727       0.0000000000       0.0909090909
      0.2727272727       0.0000000000       0.1818181818
      0.2727272727       0.0000000000       0.2727272727
      0.2727272727       0.0000000000       0.3636363636
      0.2727272727       0.0000000000       0.4545454545
      0.2727272727       0.0000000000       0.5454545455
      0.2727272727       0.0000000000       0.6363636364
      0.2727272727       0.0000000000       0.7272727273
      0.2727272727       0.0000000000       0.8181818182
      0.2727272727       0.0000000000       0.9090909091
      0.2727272727       0.0909090909       0.0000000000
      0.2727272727       0.0909090909       0.0909090909
      0.2727272727       0.0909090909       0.1818181818
      0.2727272727       0.0909090909       0.2727272727
      0.2727272727       0.0909090909       0.3636363636
      0.2727272727       0.0909090909       0.4545454545
      0.2727272727       0.0909090909       0.5454545455
      0.2727272727       0.0909090909       0.6363636364
      0.2727272727       0.0909090909       0.7272727273
      0.2727272727       0.0909090909       0.8181818182
      0.2727272727       0.0909090909       0.9090909091
      0.2727272727       0.1818181818       0.0000000000
      0.2727272727       0.1818181818       0.0909090909
      0.2727272727       0.1818181818       0.1818181818
      0.2727272727       0.1818181818       0.2727272727
      0.2727272727       0.1818181818       0.3636363636
      0.2727272727       0.1818181818       0.4545454545
      0.2727272727       0.1818181818       0.5454545455
      0.2727272727       0.1818181818       0.6363636364
      0.2727272727       0.1818181818       0.7272727273
      0.2727272727       0.1818181818       0.8181818182
      0.2727272727       0.1818181818       0.9090909091
      0.2727272727       0.2727272727       0.0000000000
      0.2727272727       0.2727272727       0.0909090909
      0.2727272727       0.2727272727       0.1818181818
      0.2727272727       0.2727272727       0.2727272727
      0.2727272727       0.2727272727       0.3636363636
      0.2727272727       0.2727272727       0.4545454545
      0.2727272727       0.2727272727       0.5454545455
      0.2727272727       0.2727272727       0.6363636364
      0.2727272727       0.2727272727       0.7272727273
      0.2727272727       0.2727272727       0.8181818182
      0.2727272727       0.2727272727       0.9090909091
      0.2727272727       0.3636363636       0.0000000000
      0.2727272727       0.3636363636       0.0909090909
      0.2727272727       0.3636363636       0.1818181818
      0.2727272727       0.3636363636       0.2727272727
      0.2727272727       0.3636363636       0.3636363636
      0.2727272727       0.3636363636       0.4545454545
      0.2727272727       0.3636363636       0.5454545455
      0.2727272727       0.3636363636       0.6363636364
      0.2727272727       0.3636363636       0.7272727273
      0.2727272727       0.3636363636       0.8181818182
      0.2727272727       0.3636363636       0.9090909091
      0.2727272727       0.4545454545       0.0000000000
      0.2727272727       0.4545454545       0.0909090909
      0.2727272727       0.4545454545       0.1818181818
      0.2727272727       0.4545454545       0.2727272727
      0.2727272727       0.4545454545       0.3636363636
      0.2727272727       0.4545454545       0.4545454545
      0.2727272727       0.4545454545       0.5454545455
      0.2727272727       0.4545454545       0.6363636364
      0.2727272727       0.4545454545       0.7272727273
      0.2727272727       0.4545454545       0.8181818182
      0.2727272727       0.4545454545       0.9090909091
      0.2727272727       0.5454545455       0.0000000000
      0.2727272727       0.5454545455       0.0909090909
      0.2727272727       0.5454545455       0.1818181818
      0.2727272727       0.5454545455       0.2727272727
      0.2727272727       0.5454545455       0.3636363636
      0.2727272727       0.5454545455       0.4545454545
      0.2727272727       0.5454545455       0.5454545455
      0.2727272727       0.5454545455       0.6363636364
      0.2727272727       0.5454545455       0.7272727273
      0.2727272727       0.5454545455       0.8181818182
      0.2727272727       0.5454545455       0.9090909091
      0.2727272727       0.6363636364       0.0000000000
      0.2727272727       0.6363636364       0.0909090909
      0.2727272727       0.6363636364       0.1818181818
      0.2727272727       0.6363636364       0.2727272727
      0.2727272727       0.6363636364       0.3636363636
      0.2727272727       0.6363636364       0.4545454545
      0.2727272727       0.6363636364       0.5454545455
      0.2727272727       0.6363636364       0.6363636364
      0.2727272727       0.6363636364       0.7272727273
      0.2727272727       0.6363636364       0.8181818182
      0.2727272727       0.6363636364       0.9090909091
      0.2727272727       0.7272727273       0.0000000000
      0.2727272727       0.7272727273       0.0909090909
      0.2727272727       0.7272727273       0.1818181818
      0.2727272727       0.7272727273       0.2727272727
      0.2727272727       0.7272727273       0.3636363636
      0.2727272727       0.7272727273       0.4545454545
      0.2727272727       0.7272727273       0.5454545455
      0.2727272727       0.7272727273       0.6363636364
      0.2727272727       0.7272727273       0.7272727273
      0.2727272727       0.7272727273       0.8181818182
      0.2727272727       0.7272727273       0.9090909091
      0.2727272727       0.8181818182       0.0000000000
      0.2727272727       0.8181818182       0.0909090909
      0.2727272727       0.8181818182       0.1818181818
      0.2727272727       0.8181818182       0.2727272727
      0.2727272727       0.8181818182       0.3636363636
      0.2727272727       0.8181818182       0.4545454545
      0.2727272727       0.8181818182       0.5454545455
      0.2727272727       0.8181818182       0.6363636364
      0.2727272727       0.8181818182       0.7272727273
      0.2727272727       0.8181818182       0.8181818182
      0.2727272727       0.8181818182       0.9090909091
      0.2727272727       0.9090909091       0.0000000000
      0.2727272727       0.9090909091       0.0909090909
      0.2727272727       0.9090909091       0.1818181818
      0.2727272727       0.9090909091       0.2727272727
      0.2727272727       0.9090909091       0.3636363636
      0.2727272727       0.9090909091       0.4545454545
      0.2727272727       0.9090909091       0.5454545455
      0.2727272727       0.9090909091       0.6363636364
      0.2727272727       0.9090909091       0.7272727273
      0.2727272727       0.9090909091       0.8181818182
      0.2727272727       0.9090909091       0.9090909091
      0.3636363636       0.0000000000       0.0000000000
      0.3636363636       0.0000000000       0.0909090909
      0.3636363636       0.0000000000       0.1818181818
      0.3636363636       0.0000000000       0.2727272727
      0.3636363636       0.0000000000       0.3636363636
      0.3636363636       0.0000000000       0.4545454545
      0.3636363636       0.0000000000       0.5454545455
      0.3636363636       0.0000000000       0.6363636364
      0.3636363636       0.0000000000       0.7272727273
      0.3636363636       0.0000000000       0.8181818182
      0.3636363636       0.0000000000       0.9090909091
      0.3636363636       0.0909090909       0.0000000000
      0.3636363636       0.0909090909       0.0909090909
      0.3636363636       0.0909090909       0.1818181818
      0.3636363636       0.0909090909       0.2727272727
      0.3636363636       0.0909090909       0.3636363636
      0.3636363636       0.0909090909       0.4545454545
      0.3636363636       0.0909090909       0.5454545455
      0.3636363636       0.0909090909       0.6363636364
      0.3636363636       0.0909090909       0.7272727273
      0.3636363636       0.0909090909       0.8181818182
      0.3636363636       0.0909090909       0.9090909091
      0.3636363636       0.1818181818       0.0000000000
      0.3636363636       0.1818181818       0.0909090909
      0.3636363636       0.1818181818       0.1818181818