&CONTROL
  calculation = 'bands'
  restart_mode='from_scratch',
  outdir = './out'
  prefix = 'CrI3'
  pseudo_dir = '../../pseudo/'
  verbosity = 'high'
/
&SYSTEM
  ibrav = 4
  assume_isolated = '2D'
  celldm(1) = 12.88253407
  celldm(3) = 2.945276712
  nat = 8
  ntyp = 2
  ecutwfc = 94
  occupations = 'smearing'
  smearing = 'mv'
  degauss = 0.001
  starting_magnetization(1) = 0.5
  nspin = 2
  nbnd = 68
/
&ELECTRONS
  conv_thr =  1.d-10
  mixing_beta= 0.4
  diagonalization = 'ppcg'
/
ATOMIC_SPECIES
Cr    51.996      cr_pbesol_v1.5.uspp.F.UPF
I     126.9045    I.pbesol-n-kjpaw_psl.0.2.UPF

ATOMIC_POSITIONS crystal
Cr            0.3333333333        0.6666666667        0.0000000000
Cr            0.6666666667        0.3333333333        0.0000000000
I             0.0000000000        0.3541077360        0.0769313053
I             0.0000000000        0.6458922640       -0.0769312753
I             0.3541077360        0.3541077360       -0.0769312753
I             0.6458922640        0.6458922640        0.0769313053
I             0.3541077360        0.0000000000        0.0769313053
I             0.6458922640        0.0000000000       -0.0769312753

K_POINTS crystal
         274
    0.000000    0.000000    0.000000   1.0
    0.000000    0.005000    0.000000   1.0
    0.000000    0.010000    0.000000   1.0
    0.000000    0.015000    0.000000   1.0
    0.000000    0.020000    0.000000   1.0
    0.000000    0.025000    0.000000   1.0
    0.000000    0.030000    0.000000   1.0
    0.000000    0.035000    0.000000   1.0
    0.000000    0.040000    0.000000   1.0
    0.000000    0.045000    0.000000   1.0
    0.000000    0.050000    0.000000   1.0
    0.000000    0.055000    0.000000   1.0
    0.000000    0.060000    0.000000   1.0
    0.000000    0.065000    0.000000   1.0
    0.000000    0.070000    0.000000   1.0
    0.000000    0.075000    0.000000   1.0
    0.000000    0.080000    0.000000   1.0
    0.000000    0.085000    0.000000   1.0
    0.000000    0.090000    0.000000   1.0
    0.000000    0.095000    0.000000   1.0
    0.000000    0.100000    0.000000   1.0
    0.000000    0.105000    0.000000   1.0
    0.000000    0.110000    0.000000   1.0
    0.000000    0.115000    0.000000   1.0
    0.000000    0.120000    0.000000   1.0
    0.000000    0.125000    0.000000   1.0
    0.000000    0.130000    0.000000   1.0
    0.000000    0.135000    0.000000   1.0
    0.000000    0.140000    0.000000   1.0
    0.000000    0.145000    0.000000   1.0
    0.000000    0.150000    0.000000   1.0
    0.000000    0.155000    0.000000   1.0
    0.000000    0.160000    0.000000   1.0
    0.000000    0.165000    0.000000   1.0
    0.000000    0.170000    0.000000   1.0
    0.000000    0.175000    0.000000   1.0
    0.000000    0.180000    0.000000   1.0
    0.000000    0.185000    0.000000   1.0
    0.000000    0.190000    0.000000   1.0
    0.000000    0.195000    0.000000   1.0
    0.000000    0.200000    0.000000   1.0
    0.000000    0.205000    0.000000   1.0
    0.000000    0.210000    0.000000   1.0
    0.000000    0.215000    0.000000   1.0
    0.000000    0.220000    0.000000   1.0
    0.000000    0.225000    0.000000   1.0
    0.000000    0.230000    0.000000   1.0
    0.000000    0.235000    0.000000   1.0
    0.000000    0.240000    0.000000   1.0
    0.000000    0.245000    0.000000   1.0
    0.000000    0.250000    0.000000   1.0
    0.000000    0.255000    0.000000   1.0
    0.000000    0.260000    0.000000   1.0
    0.000000    0.265000    0.000000   1.0
    0.000000    0.270000    0.000000   1.0
    0.000000    0.275000    0.000000   1.0
    0.000000    0.280000    0.000000   1.0
    0.000000    0.285000    0.000000   1.0
    0.000000    0.290000    0.000000   1.0
    0.000000    0.295000    0.000000   1.0
    0.000000    0.300000    0.000000   1.0
    0.000000    0.305000    0.000000   1.0
    0.000000    0.310000    0.000000   1.0
    0.000000    0.315000    0.000000   1.0
    0.000000    0.320000    0.000000   1.0
    0.000000    0.325000    0.000000   1.0
    0.000000    0.330000    0.000000   1.0
    0.000000    0.335000    0.000000   1.0
    0.000000    0.340000    0.000000   1.0
    0.000000    0.345000    0.000000   1.0
    0.000000    0.350000    0.000000   1.0
    0.000000    0.355000    0.000000   1.0
    0.000000    0.360000    0.000000   1.0
    0.000000    0.365000    0.000000   1.0
    0.000000    0.370000    0.000000   1.0
    0.000000    0.375000    0.000000   1.0
    0.000000    0.380000    0.000000   1.0
    0.000000    0.385000    0.000000   1.0
    0.000000    0.390000    0.000000   1.0
    0.000000    0.395000    0.000000   1.0
    0.000000    0.400000    0.000000   1.0
    0.000000    0.405000    0.000000   1.0
    0.000000    0.410000    0.000000   1.0
    0.000000    0.415000    0.000000   1.0
    0.000000    0.420000    0.000000   1.0
    0.000000    0.425000    0.000000   1.0
    0.000000    0.430000    0.000000   1.0
    0.000000    0.435000    0.000000   1.0
    0.000000    0.440000    0.000000   1.0
    0.000000    0.445000    0.000000   1.0
    0.000000    0.450000    0.000000   1.0
    0.000000    0.455000    0.000000   1.0
    0.000000    0.460000    0.000000   1.0
    0.000000    0.465000    0.000000   1.0
    0.000000    0.470000    0.000000   1.0
    0.000000    0.475000    0.000000   1.0
    0.000000    0.480000    0.000000   1.0
    0.000000    0.485000    0.000000   1.0
    0.000000    0.490000    0.000000   1.0
    0.000000    0.495000    0.000000   1.0
    0.000000    0.500000    0.000000   1.0
    0.005747    0.497126    0.000000   1.0
    0.011493    0.494252    0.000000   1.0
    0.017240    0.491378    0.000000   1.0
    0.022986    0.488503    0.000000   1.0
    0.028733    0.485629    0.000000   1.0
    0.034479    0.482755    0.000000   1.0
    0.040226    0.479881    0.000000   1.0
    0.045972    0.477007    0.000000   1.0
    0.051719    0.474133    0.000000   1.0
    0.057466    0.471259    0.000000   1.0
    0.063212    0.468384    0.000000   1.0
    0.068959    0.465510    0.000000   1.0
    0.074705    0.462636    0.000000   1.0
    0.080452    0.459762    0.000000   1.0
    0.086198    0.456888    0.000000   1.0
    0.091945    0.454014    0.000000   1.0
    0.097691    0.451140    0.000000   1.0
    0.103438    0.448266    0.000000   1.0
    0.109184    0.445391    0.000000   1.0
    0.114931    0.442517    0.000000   1.0
    0.120678    0.439643    0.000000   1.0
    0.126424    0.436769    0.000000   1.0
    0.132171    0.433895    0.000000   1.0
    0.137917    0.431021    0.000000   1.0
    0.143664    0.428147    0.000000   1.0
    0.149410    0.425272    0.000000   1.0
    0.155157    0.422398    0.000000   1.0
    0.160903    0.419524    0.000000   1.0
    0.166650    0.416650    0.000000   1.0
    0.172397    0.413776    0.000000   1.0
    0.178143    0.410902    0.000000   1.0
    0.183890    0.408028    0.000000   1.0
    0.189636    0.405153    0.000000   1.0
    0.195383    0.402279    0.000000   1.0
    0.201129    0.399405    0.000000   1.0
    0.206876    0.396531    0.000000   1.0
    0.212622    0.393657    0.000000   1.0
    0.218369    0.390783    0.000000   1.0
    0.224116    0.387909    0.000000   1.0
    0.229862    0.385034    0.000000   1.0
    0.235609    0.382160    0.000000   1.0
    0.241355    0.379286    0.000000   1.0
    0.247102    0.376412    0.000000   1.0
    0.252848    0.373538    0.000000   1.0
    0.258595    0.370664    0.000000   1.0
    0.264341    0.367790    0.000000   1.0
    0.270088    0.364916    0.000000   1.0
    0.275834    0.362041    0.000000   1.0
    0.281581    0.359167    0.000000   1.0
    0.287328    0.356293    0.000000   1.0
    0.293074    0.353419    0.000000   1.0
    0.298821    0.350545    0.000000   1.0
    0.304567    0.347671    0.000000   1.0
    0.310314    0.344797    0.000000   1.0
    0.316060    0.341922    0.000000   1.0
    0.321807    0.339048    0.000000   1.0
    0.327553    0.336174    0.000000   1.0
    0.333300    0.333300    0.000000   1.0
    0.330402    0.330402    0.000000   1.0
    0.327503    0.327503    0.000000   1.0
    0.324605    0.324605    0.000000   1.0
    0.321707    0.321707    0.000000   1.0
    0.318809    0.318809    0.000000   1.0
    0.315910    0.315910    0.000000   1.0
    0.313012    0.313012    0.000000   1.0
    0.310114    0.310114    0.000000   1.0
    0.307216    0.307216    0.000000   1.0
    0.304317    0.304317    0.000000   1.0
    0.301419    0.301419    0.000000   1.0
    0.298521    0.298521    0.000000   1.0
    0.295623    0.295623    0.000000   1.0
    0.292724    0.292724    0.000000   1.0
    0.289826    0.289826    0.000000   1.0
    0.286928    0.286928    0.000000   1.0
    0.284030    0.284030    0.000000   1.0
    0.281131    0.281131    0.000000   1.0
    0.278233    0.278233    0.000000   1.0
    0.275335    0.275335    0.000000   1.0
    0.272437    0.272437    0.000000   1.0
    0.269538    0.269538    0.000000   1.0
    0.266640    0.266640    0.000000   1.0
    0.263742    0.263742    0.000000   1.0
    0.260843    0.260843    0.000000   1.0
    0.257945    0.257945    0.000000   1.0
    0.255047    0.255047    0.000000   1.0
    0.252149    0.252149    0.000000   1.0
    0.249250    0.249250    0.000000   1.0
    0.246352    0.246352    0.000000   1.0
    0.243454    0.243454    0.000000   1.0
    0.240556    0.240556    0.000000   1.0
    0.237657    0.237657    0.000000   1.0
    0.234759    0.234759    0.000000   1.0
    0.231861    0.231861    0.000000   1.0
    0.228963    0.228963    0.000000   1.0
    0.226064    0.226064    0.000000   1.0
    0.223166    0.223166    0.000000   1.0
    0.220268    0.220268    0.000000   1.0
    0.217370    0.217370    0.000000   1.0
    0.214471    0.214471    0.000000   1.0
    0.211573    0.211573    0.000000   1.0
    0.208675    0.208675    0.000000   1.0
    0.205777    0.205777    0.000000   1.0
    0.202878    0.202878    0.000000   1.0
    0.199980    0.199980    0.000000   1.0
    0.197082    0.197082    0.000000   1.0
    0.194183    0.194183    0.000000   1.0
    0.191285    0.191285    0.000000   1.0
    0.188387    0.188387    0.000000   1.0
    0.185489    0.185489    0.000000   1.0
    0.182590    0.182590    0.000000   1.0
    0.179692    0.179692    0.000000   1.0
    0.176794    0.176794    0.000000   1.0
    0.173896    0.173896    0.000000   1.0
    0.170997    0.170997    0.000000   1.0
    0.168099    0.168099    0.000000   1.0
    0.165201    0.165201    0.000000   1.0
    0.162303    0.162303    0.000000   1.0
    0.159404    0.159404    0.000000   1.0
    0.156506    0.156506    0.000000   1.0
    0.153608    0.153608    0.000000   1.0
    0.150710    0.150710    0.000000   1.0
    0.147811    0.147811    0.000000   1.0
    0.144913    0.144913    0.000000   1.0
    0.142015    0.142015    0.000000   1.0
    0.139117    0.139117    0.000000   1.0
    0.136218    0.136218    0.000000   1.0
    0.133320    0.133320    0.000000   1.0
    0.130422    0.130422    0.000000   1.0
    0.127523    0.127523    0.000000   1.0
    0.124625    0.124625    0.000000   1.0
    0.121727    0.121727    0.000000   1.0
    0.118829    0.118829    0.000000   1.0
    0.115930    0.115930    0.000000   1.0
    0.113032    0.113032    0.000000   1.0
    0.110134    0.110134    0.000000   1.0
    0.107236    0.107236    0.000000   1.0
    0.104337    0.104337    0.000000   1.0
    0.101439    0.101439    0.000000   1.0
    0.098541    0.098541    0.000000   1.0
    0.095643    0.095643    0.000000   1.0
    0.092744    0.092744    0.000000   1.0
    0.089846    0.089846    0.000000   1.0
    0.086948    0.086948    0.000000   1.0
    0.084050    0.084050    0.000000   1.0
    0.081151    0.081151    0.000000   1.0
    0.078253    0.078253    0.000000   1.0
    0.075355    0.075355    0.000000   1.0
    0.072457    0.072457    0.000000   1.0
    0.069558    0.069558    0.000000   1.0
    0.066660    0.066660    0.000000   1.0
    0.063762    0.063762    0.000000   1.0
    0.060863    0.060863    0.000000   1.0
    0.057965    0.057965    0.000000   1.0
    0.055067    0.055067    0.000000   1.0
    0.052169    0.052169    0.000000   1.0
    0.049270    0.049270    0.000000   1.0
    0.046372    0.046372    0.000000   1.0
    0.043474    0.043474    0.000000   1.0
    0.040576    0.040576    0.000000   1.0
    0.037677    0.037677    0.000000   1.0
    0.034779    0.034779    0.000000   1.0
    0.031881    0.031881    0.000000   1.0
    0.028983    0.028983    0.000000   1.0
    0.026084    0.026084    0.000000   1.0
    0.023186    0.023186    0.000000   1.0
    0.020288    0.020288    0.000000   1.0
    0.017390    0.017390    0.000000   1.0
    0.014491    0.014491    0.000000   1.0
    0.011593    0.011593    0.000000   1.0
    0.008695    0.008695    0.000000   1.0
    0.005797    0.005797    0.000000   1.0
    0.002898    0.002898    0.000000   1.0
    0.000000    0.000000    0.000000   1.0
