bands_plot = .true.
conv_tol =   3.0000000000d-07
conv_window = 3
exclude_bands = 1-4
fermi_energy =  -2.6411000000d+00
mp_grid = 12, 12, 1
num_bands = 13
num_cg_steps = 200
num_iter = 4000
num_wann = 13
spn_formatted = .true.
wannier_plot = .true.
wannier_plot_format = cube
wannier_plot_supercell = 7
wvfn_formatted = .true.

begin atoms_cart
ang
Mo         0.0000000000       0.0000000000       0.0000000000 
S         0.0000000000       1.8421191469      38.4380058273 
S         0.0000000000       1.8421191469       1.5620440727 
end atoms_cart

begin kpoint_path
G       0.0000000000       0.0000000000       0.0000000000    M       0.5000000000       0.0000000000       0.0000000000
M       0.5000000000       0.0000000000       0.0000000000    K       0.3333333333       0.3333333333       0.0000000000
K       0.3333333333       0.3333333333       0.0000000000    G       0.0000000000       0.0000000000       0.0000000000
G       0.0000000000       0.0000000000       0.0000000000    A       0.0000000000       0.0000000000       0.5000000000
A       0.0000000000       0.0000000000       0.5000000000    L       0.5000000000       0.0000000000       0.5000000000
L       0.5000000000       0.0000000000       0.5000000000    H       0.3333333333       0.3333333333       0.5000000000
H       0.3333333333       0.3333333333       0.5000000000    A       0.0000000000       0.0000000000       0.5000000000
end kpoint_path

begin kpoints
      0.0000000000       0.0000000000       0.0000000000
      0.0000000000       0.0833333333       0.0000000000
      0.0000000000       0.1666666667       0.0000000000
      0.0000000000       0.2500000000       0.0000000000
      0.0000000000       0.3333333333       0.0000000000
      0.0000000000       0.4166666667       0.0000000000
      0.0000000000       0.5000000000       0.0000000000
      0.0000000000       0.5833333333       0.0000000000
      0.0000000000       0.6666666667       0.0000000000
      0.0000000000       0.7500000000       0.0000000000
      0.0000000000       0.8333333333       0.0000000000
      0.0000000000       0.9166666667       0.0000000000
      0.0833333333       0.0000000000       0.0000000000
      0.0833333333       0.0833333333       0.0000000000
      0.0833333333       0.1666666667       0.0000000000
      0.0833333333       0.2500000000       0.0000000000
      0.0833333333       0.3333333333       0.0000000000
      0.0833333333       0.4166666667       0.0000000000
      0.0833333333       0.5000000000       0.0000000000
      0.0833333333       0.5833333333       0.0000000000
      0.0833333333       0.6666666667       0.0000000000
      0.0833333333       0.7500000000       0.0000000000
      0.0833333333       0.8333333333       0.0000000000
      0.0833333333       0.9166666667       0.0000000000
      0.1666666667       0.0000000000       0.0000000000
      0.1666666667       0.0833333333       0.0000000000
      0.1666666667       0.1666666667       0.0000000000
      0.1666666667       0.2500000000       0.0000000000
      0.1666666667       0.3333333333       0.0000000000
      0.1666666667       0.4166666667       0.0000000000
      0.1666666667       0.5000000000       0.0000000000
      0.1666666667       0.5833333333       0.0000000000
      0.1666666667       0.6666666667       0.0000000000
      0.1666666667       0.7500000000       0.0000000000
      0.1666666667       0.8333333333       0.0000000000
      0.1666666667       0.9166666667       0.0000000000
      0.2500000000       0.0000000000       0.0000000000
      0.2500000000       0.0833333333       0.0000000000
      0.2500000000       0.1666666667       0.0000000000
      0.2500000000       0.2500000000       0.0000000000
      0.2500000000       0.3333333333       0.0000000000
      0.2500000000       0.4166666667       0.0000000000
      0.2500000000       0.5000000000       0.0000000000
      0.2500000000       0.5833333333       0.0000000000
      0.2500000000       0.6666666667       0.0000000000
      0.2500000000       0.7500000000       0.0000000000
      0.2500000000       0.8333333333       0.0000000000
      0.2500000000       0.9166666667       0.0000000000
      0.3333333333       0.0000000000       0.0000000000
      0.3333333333       0.0833333333       0.0000000000
      0.3333333333       0.1666666667       0.0000000000
      0.3333333333       0.2500000000       0.0000000000
      0.3333333333       0.3333333333       0.0000000000
      0.3333333333       0.4166666667       0.0000000000
      0.3333333333       0.5000000000       0.0000000000
      0.3333333333       0.5833333333       0.0000000000
      0.3333333333       0.6666666667       0.0000000000
      0.3333333333       0.7500000000       0.0000000000
      0.3333333333       0.8333333333       0.0000000000
      0.3333333333       0.9166666667       0.0000000000
      0.4166666667       0.0000000000       0.0000000000
      0.4166666667       0.0833333333       0.0000000000
      0.4166666667       0.1666666667       0.0000000000
      0.4166666667       0.2500000000       0.0000000000
      0.4166666667       0.3333333333       0.0000000000
      0.4166666667       0.4166666667       0.0000000000
      0.4166666667       0.5000000000       0.0000000000
      0.4166666667       0.5833333333       0.0000000000
      0.4166666667       0.6666666667       0.0000000000
      0.4166666667       0.7500000000       0.0000000000
      0.4166666667       0.8333333333       0.0000000000
      0.4166666667       0.9166666667       0.0000000000
      0.5000000000       0.0000000000       0.0000000000
      0.5000000000       0.0833333333       0.0000000000
      0.5000000000       0.1666666667       0.0000000000
      0.5000000000       0.2500000000       0.0000000000
      0.5000000000       0.3333333333       0.0000000000
      0.5000000000       0.4166666667       0.0000000000
      0.5000000000       0.5000000000       0.0000000000
      0.5000000000       0.5833333333       0.0000000000
      0.5000000000       0.6666666667       0.0000000000
      0.5000000000       0.7500000000       0.0000000000
      0.5000000000       0.8333333333       0.0000000000
      0.5000000000       0.9166666667       0.0000000000
      0.5833333333       0.0000000000       0.0000000000
      0.5833333333       0.0833333333       0.0000000000
      0.5833333333       0.1666666667       0.0000000000
      0.5833333333       0.2500000000       0.0000000000
      0.5833333333       0.3333333333       0.0000000000
      0.5833333333       0.4166666667       0.0000000000
      0.5833333333       0.5000000000       0.0000000000
      0.5833333333       0.5833333333       0.0000000000
      0.5833333333       0.6666666667       0.0000000000
      0.5833333333       0.7500000000       0.0000000000
      0.5833333333       0.8333333333       0.0000000000
      0.5833333333       0.9166666667       0.0000000000
      0.6666666667       0.0000000000       0.0000000000
      0.6666666667       0.0833333333       0.0000000000
      0.6666666667       0.1666666667       0.0000000000
      0.6666666667       0.2500000000       0.0000000000
      0.6666666667       0.3333333333       0.0000000000
      0.6666666667       0.4166666667       0.0000000000
      0.6666666667       0.5000000000       0.0000000000
      0.6666666667       0.5833333333       0.0000000000
      0.6666666667       0.6666666667       0.0000000000
      0.6666666667       0.7500000000       0.0000000000
      0.6666666667       0.8333333333       0.0000000000
      0.6666666667       0.9166666667       0.0000000000
      0.7500000000       0.0000000000       0.0000000000
      0.7500000000       0.0833333333       0.0000000000
      0.7500000000       0.1666666667       0.0000000000
      0.7500000000       0.2500000000       0.0000000000
      0.7500000000       0.3333333333       0.0000000000
      0.7500000000       0.4166666667       0.0000000000
      0.7500000000       0.5000000000       0.0000000000
      0.7500000000       0.5833333333       0.0000000000
      0.7500000000       0.6666666667       0.0000000000
      0.7500000000       0.7500000000       0.0000000000
      0.7500000000       0.8333333333       0.0000000000
      0.7500000000       0.9166666667       0.0000000000
      0.8333333333       0.0000000000       0.0000000000
      0.8333333333       0.0833333333       0.0000000000
      0.8333333333       0.1666666667       0.0000000000
      0.8333333333       0.2500000000       0.0000000000
      0.8333333333       0.3333333333       0.0000000000
      0.8333333333       0.4166666667       0.0000000000
      0.8333333333       0.5000000000       0.0000000000
      0.8333333333       0.5833333333       0.0000000000
      0.8333333333       0.6666666667       0.0000000000
      0.8333333333       0.7500000000       0.0000000000
      0.8333333333       0.8333333333       0.0000000000
      0.8333333333       0.9166666667       0.0000000000
      0.9166666667       0.0000000000       0.0000000000
      0.9166666667       0.0833333333       0.0000000000
      0.9166666667       0.1666666667       0.0000000000
      0.9166666667       0.2500000000       0.0000000000
      0.9166666667       0.3333333333       0.0000000000
      0.9166666667       0.4166666667       0.0000000000
      0.9166666667       0.5000000000       0.0000000000
      0.9166666667       0.5833333333       0.0000000000
      0.9166666667       0.6666666667       0.0000000000
      0.9166666667       0.7500000000       0.0000000000
      0.9166666667       0.8333333333       0.0000000000
      0.9166666667       0.9166666667       0.0000000000
end kpoints

begin projections
Mo:d
S:s;p
end projections

begin unit_cell_cart
ang
      3.1906439561       0.0000000000       0.0000000000
     -1.5953219780       2.7631787204       0.0000000000
      0.0000000000       0.0000000000      40.0000000000
end unit_cell_cart
