&CONTROL
  calculation = 'nscf'
  etot_conv_thr =   3.0000000000d-05
  forc_conv_thr =   1.0000000000d-04
  max_seconds =   4.1040000000d+04
  outdir = './out/'
  prefix = 'mos2'
  pseudo_dir = './pseudo/'
  restart_mode = 'from_scratch'
  tprnfor = .true.
  tstress = .true.
  verbosity = 'high'
/
&SYSTEM
  degauss =   1.0000000000d-02
  ecutrho =   2.8000000000d+02
  ecutwfc =   3.5000000000d+01
  ibrav = 0
  nat = 3
  nbnd = 17
  noinv = .true.
  nosym = .true.
  ntyp = 2
  occupations = 'smearing'
  smearing = 'cold'
/
&ELECTRONS
  conv_thr =   6.0000000000d-10
  diago_full_acc = .true.
  electron_maxstep = 80
  mixing_beta =   4.0000000000d-01
  startingpot = 'file'
/
ATOMIC_SPECIES
Mo     95.95 Mo_ONCV_PBE-1.0.oncvpsp.upf
S      32.06 s_pbe_v1.4.uspp.F.UPF
ATOMIC_POSITIONS angstrom
Mo           0.0000000000       0.0000000000       0.0000000000 
S            0.0000000000       1.8421191469      38.4380058273 
S            0.0000000000       1.8421191469       1.5620440727 
K_POINTS crystal
144
        0.0000000000       0.0000000000       0.0000000000       0.0069444444
        0.0000000000       0.0833333333       0.0000000000       0.0069444444
        0.0000000000       0.1666666667       0.0000000000       0.0069444444
        0.0000000000       0.2500000000       0.0000000000       0.0069444444
        0.0000000000       0.3333333333       0.0000000000       0.0069444444
        0.0000000000       0.4166666667       0.0000000000       0.0069444444
        0.0000000000       0.5000000000       0.0000000000       0.0069444444
        0.0000000000       0.5833333333       0.0000000000       0.0069444444
        0.0000000000       0.6666666667       0.0000000000       0.0069444444
        0.0000000000       0.7500000000       0.0000000000       0.0069444444
        0.0000000000       0.8333333333       0.0000000000       0.0069444444
        0.0000000000       0.9166666667       0.0000000000       0.0069444444
        0.0833333333       0.0000000000       0.0000000000       0.0069444444
        0.0833333333       0.0833333333       0.0000000000       0.0069444444
        0.0833333333       0.1666666667       0.0000000000       0.0069444444
        0.0833333333       0.2500000000       0.0000000000       0.0069444444
        0.0833333333       0.3333333333       0.0000000000       0.0069444444
        0.0833333333       0.4166666667       0.0000000000       0.0069444444
        0.0833333333       0.5000000000       0.0000000000       0.0069444444
        0.0833333333       0.5833333333       0.0000000000       0.0069444444
        0.0833333333       0.6666666667       0.0000000000       0.0069444444
        0.0833333333       0.7500000000       0.0000000000       0.0069444444
        0.0833333333       0.8333333333       0.0000000000       0.0069444444
        0.0833333333       0.9166666667       0.0000000000       0.0069444444
        0.1666666667       0.0000000000       0.0000000000       0.0069444444
        0.1666666667       0.0833333333       0.0000000000       0.0069444444
        0.1666666667       0.1666666667       0.0000000000       0.0069444444
        0.1666666667       0.2500000000       0.0000000000       0.0069444444
        0.1666666667       0.3333333333       0.0000000000       0.0069444444
        0.1666666667       0.4166666667       0.0000000000       0.0069444444
        0.1666666667       0.5000000000       0.0000000000       0.0069444444
        0.1666666667       0.5833333333       0.0000000000       0.0069444444
        0.1666666667       0.6666666667       0.0000000000       0.0069444444
        0.1666666667       0.7500000000       0.0000000000       0.0069444444
        0.1666666667       0.8333333333       0.0000000000       0.0069444444
        0.1666666667       0.9166666667       0.0000000000       0.0069444444
        0.2500000000       0.0000000000       0.0000000000       0.0069444444
        0.2500000000       0.0833333333       0.0000000000       0.0069444444
        0.2500000000       0.1666666667       0.0000000000       0.0069444444
        0.2500000000       0.2500000000       0.0000000000       0.0069444444
        0.2500000000       0.3333333333       0.0000000000       0.0069444444
        0.2500000000       0.4166666667       0.0000000000       0.0069444444
        0.2500000000       0.5000000000       0.0000000000       0.0069444444
        0.2500000000       0.5833333333       0.0000000000       0.0069444444
        0.2500000000       0.6666666667       0.0000000000       0.0069444444
        0.2500000000       0.7500000000       0.0000000000       0.0069444444
        0.2500000000       0.8333333333       0.0000000000       0.0069444444
        0.2500000000       0.9166666667       0.0000000000       0.0069444444
        0.3333333333       0.0000000000       0.0000000000       0.0069444444
        0.3333333333       0.0833333333       0.0000000000       0.0069444444
        0.3333333333       0.1666666667       0.0000000000       0.0069444444
        0.3333333333       0.2500000000       0.0000000000       0.0069444444
        0.3333333333       0.3333333333       0.0000000000       0.0069444444
        0.3333333333       0.4166666667       0.0000000000       0.0069444444
        0.3333333333       0.5000000000       0.0000000000       0.0069444444
        0.3333333333       0.5833333333       0.0000000000       0.0069444444
        0.3333333333       0.6666666667       0.0000000000       0.0069444444
        0.3333333333       0.7500000000       0.0000000000       0.0069444444
        0.3333333333       0.8333333333       0.0000000000       0.0069444444
        0.3333333333       0.9166666667       0.0000000000       0.0069444444
        0.4166666667       0.0000000000       0.0000000000       0.0069444444
        0.4166666667       0.0833333333       0.0000000000       0.0069444444
        0.4166666667       0.1666666667       0.0000000000       0.0069444444
        0.4166666667       0.2500000000       0.0000000000       0.0069444444
        0.4166666667       0.3333333333       0.0000000000       0.0069444444
        0.4166666667       0.4166666667       0.0000000000       0.0069444444
        0.4166666667       0.5000000000       0.0000000000       0.0069444444
        0.4166666667       0.5833333333       0.0000000000       0.0069444444
        0.4166666667       0.6666666667       0.0000000000       0.0069444444
        0.4166666667       0.7500000000       0.0000000000       0.0069444444
        0.4166666667       0.8333333333       0.0000000000       0.0069444444
        0.4166666667       0.9166666667       0.0000000000       0.0069444444
        0.5000000000       0.0000000000       0.0000000000       0.0069444444
        0.5000000000       0.0833333333       0.0000000000       0.0069444444
        0.5000000000       0.1666666667       0.0000000000       0.0069444444
        0.5000000000       0.2500000000       0.0000000000       0.0069444444
        0.5000000000       0.3333333333       0.0000000000       0.0069444444
        0.5000000000       0.4166666667       0.0000000000       0.0069444444
        0.5000000000       0.5000000000       0.0000000000       0.0069444444
        0.5000000000       0.5833333333       0.0000000000       0.0069444444
        0.5000000000       0.6666666667       0.0000000000       0.0069444444
        0.5000000000       0.7500000000       0.0000000000       0.0069444444
        0.5000000000       0.8333333333       0.0000000000       0.0069444444
        0.5000000000       0.9166666667       0.0000000000       0.0069444444
        0.5833333333       0.0000000000       0.0000000000       0.0069444444
        0.5833333333       0.0833333333       0.0000000000       0.0069444444
        0.5833333333       0.1666666667       0.0000000000       0.0069444444
        0.5833333333       0.2500000000       0.0000000000       0.0069444444
        0.5833333333       0.3333333333       0.0000000000       0.0069444444
        0.5833333333       0.4166666667       0.0000000000       0.0069444444
        0.5833333333       0.5000000000       0.0000000000       0.0069444444
        0.5833333333       0.5833333333       0.0000000000       0.0069444444
        0.5833333333       0.6666666667       0.0000000000       0.0069444444
        0.5833333333       0.7500000000       0.0000000000       0.0069444444
        0.5833333333       0.8333333333       0.0000000000       0.0069444444
        0.5833333333       0.9166666667       0.0000000000       0.0069444444
        0.6666666667       0.0000000000       0.0000000000       0.0069444444
        0.6666666667       0.0833333333       0.0000000000       0.0069444444
        0.6666666667       0.1666666667       0.0000000000       0.0069444444
        0.6666666667       0.2500000000       0.0000000000       0.0069444444
        0.6666666667       0.3333333333       0.0000000000       0.0069444444
        0.6666666667       0.4166666667       0.0000000000       0.0069444444
        0.6666666667       0.5000000000       0.0000000000       0.0069444444
        0.6666666667       0.5833333333       0.0000000000       0.0069444444
        0.6666666667       0.6666666667       0.0000000000       0.0069444444
        0.6666666667       0.7500000000       0.0000000000       0.0069444444
        0.6666666667       0.8333333333       0.0000000000       0.0069444444
        0.6666666667       0.9166666667       0.0000000000       0.0069444444
        0.7500000000       0.0000000000       0.0000000000       0.0069444444
        0.7500000000       0.0833333333       0.0000000000       0.0069444444
        0.7500000000       0.1666666667       0.0000000000       0.0069444444
        0.7500000000       0.2500000000       0.0000000000       0.0069444444
        0.7500000000       0.3333333333       0.0000000000       0.0069444444
        0.7500000000       0.4166666667       0.0000000000       0.0069444444
        0.7500000000       0.5000000000       0.0000000000       0.0069444444
        0.7500000000       0.5833333333       0.0000000000       0.0069444444
        0.7500000000       0.6666666667       0.0000000000       0.0069444444
        0.7500000000       0.7500000000       0.0000000000       0.0069444444
        0.7500000000       0.8333333333       0.0000000000       0.0069444444
        0.7500000000       0.9166666667       0.0000000000       0.0069444444
        0.8333333333       0.0000000000       0.0000000000       0.0069444444
        0.8333333333       0.0833333333       0.0000000000       0.0069444444
        0.8333333333       0.1666666667       0.0000000000       0.0069444444
        0.8333333333       0.2500000000       0.0000000000       0.0069444444
        0.8333333333       0.3333333333       0.0000000000       0.0069444444
        0.8333333333       0.4166666667       0.0000000000       0.0069444444
        0.8333333333       0.5000000000       0.0000000000       0.0069444444
        0.8333333333       0.5833333333       0.0000000000       0.0069444444
        0.8333333333       0.6666666667       0.0000000000       0.0069444444
        0.8333333333       0.7500000000       0.0000000000       0.0069444444
        0.8333333333       0.8333333333       0.0000000000       0.0069444444
        0.8333333333       0.9166666667       0.0000000000       0.0069444444
        0.9166666667       0.0000000000       0.0000000000       0.0069444444
        0.9166666667       0.0833333333       0.0000000000       0.0069444444
        0.9166666667       0.1666666667       0.0000000000       0.0069444444
        0.9166666667       0.2500000000       0.0000000000       0.0069444444
        0.9166666667       0.3333333333       0.0000000000       0.0069444444
        0.9166666667       0.4166666667       0.0000000000       0.0069444444
        0.9166666667       0.5000000000       0.0000000000       0.0069444444
        0.9166666667       0.5833333333       0.0000000000       0.0069444444
        0.9166666667       0.6666666667       0.0000000000       0.0069444444
        0.9166666667       0.7500000000       0.0000000000       0.0069444444
        0.9166666667       0.8333333333       0.0000000000       0.0069444444
        0.9166666667       0.9166666667       0.0000000000       0.0069444444
CELL_PARAMETERS angstrom
      3.1906439561       0.0000000000       0.0000000000
     -1.5953219780       2.7631787204       0.0000000000
      0.0000000000       0.0000000000      40.0000000000
