&CONTROL
  calculation = 'bands'
  etot_conv_thr =   2.0000000000d-05
  forc_conv_thr =   1.0000000000d-04
  max_seconds =   4.1040000000d+04
  outdir = './out/'
  prefix = 'Fe'
  pseudo_dir = '../../../pseudo/nc-fr-04_pbe_standard/'
  restart_mode = 'from_scratch'
  tprnfor = .true.
  tstress = .true.
  verbosity = 'high'
/
&system
  ibrav = 3
  celldm(1) = 5.4235
  nat = 1
  ntyp = 1
  ecutwfc = 90
  ecutrho = 1080
  lspinorb = .true.
  noncolin = .true.
  starting_magnetization(1) = -1
  nbnd = 50
  occupations = 'smearing'
  smearing = 'cold'
  degauss = 0.02
! nosym = .true.
/
&ELECTRONS
  conv_thr =   4.0000000000d-10
  diago_full_acc = .true.
  electron_maxstep = 80
  mixing_beta =   4.0000000000d-01
  startingpot = 'file'
/
ATOMIC_SPECIES
Fe 55.85 Fe.upf
ATOMIC_POSITIONS
Fe 0.0 0.0 0.0
K_POINTS crystal
         468
    0.000000    0.000000    0.000000     1.000000
    0.005000    0.005000   -0.005000     1.000000
    0.010000    0.010000   -0.010000     1.000000
    0.015000    0.015000   -0.015000     1.000000
    0.020000    0.020000   -0.020000     1.000000
    0.025000    0.025000   -0.025000     1.000000
    0.030000    0.030000   -0.030000     1.000000
    0.035000    0.035000   -0.035000     1.000000
    0.040000    0.040000   -0.040000     1.000000
    0.045000    0.045000   -0.045000     1.000000
    0.050000    0.050000   -0.050000     1.000000
    0.055000    0.055000   -0.055000     1.000000
    0.060000    0.060000   -0.060000     1.000000
    0.065000    0.065000   -0.065000     1.000000
    0.070000    0.070000   -0.070000     1.000000
    0.075000    0.075000   -0.075000     1.000000
    0.080000    0.080000   -0.080000     1.000000
    0.085000    0.085000   -0.085000     1.000000
    0.090000    0.090000   -0.090000     1.000000
    0.095000    0.095000   -0.095000     1.000000
    0.100000    0.100000   -0.100000     1.000000
    0.105000    0.105000   -0.105000     1.000000
    0.110000    0.110000   -0.110000     1.000000
    0.115000    0.115000   -0.115000     1.000000
    0.120000    0.120000   -0.120000     1.000000
    0.125000    0.125000   -0.125000     1.000000
    0.130000    0.130000   -0.130000     1.000000
    0.135000    0.135000   -0.135000     1.000000
    0.140000    0.140000   -0.140000     1.000000
    0.145000    0.145000   -0.145000     1.000000
    0.150000    0.150000   -0.150000     1.000000
    0.155000    0.155000   -0.155000     1.000000
    0.160000    0.160000   -0.160000     1.000000
    0.165000    0.165000   -0.165000     1.000000
    0.170000    0.170000   -0.170000     1.000000
    0.175000    0.175000   -0.175000     1.000000
    0.180000    0.180000   -0.180000     1.000000
    0.185000    0.185000   -0.185000     1.000000
    0.190000    0.190000   -0.190000     1.000000
    0.195000    0.195000   -0.195000     1.000000
    0.200000    0.200000   -0.200000     1.000000
    0.205000    0.205000   -0.205000     1.000000
    0.210000    0.210000   -0.210000     1.000000
    0.215000    0.215000   -0.215000     1.000000
    0.220000    0.220000   -0.220000     1.000000
    0.225000    0.225000   -0.225000     1.000000
    0.230000    0.230000   -0.230000     1.000000
    0.235000    0.235000   -0.235000     1.000000
    0.240000    0.240000   -0.240000     1.000000
    0.245000    0.245000   -0.245000     1.000000
    0.250000    0.250000   -0.250000     1.000000
    0.255000    0.255000   -0.255000     1.000000
    0.260000    0.260000   -0.260000     1.000000
    0.265000    0.265000   -0.265000     1.000000
    0.270000    0.270000   -0.270000     1.000000
    0.275000    0.275000   -0.275000     1.000000
    0.280000    0.280000   -0.280000     1.000000
    0.285000    0.285000   -0.285000     1.000000
    0.290000    0.290000   -0.290000     1.000000
    0.295000    0.295000   -0.295000     1.000000
    0.300000    0.300000   -0.300000     1.000000
    0.305000    0.305000   -0.305000     1.000000
    0.310000    0.310000   -0.310000     1.000000
    0.315000    0.315000   -0.315000     1.000000
    0.320000    0.320000   -0.320000     1.000000
    0.325000    0.325000   -0.325000     1.000000
    0.330000    0.330000   -0.330000     1.000000
    0.335000    0.335000   -0.335000     1.000000
    0.340000    0.340000   -0.340000     1.000000
    0.345000    0.345000   -0.345000     1.000000
    0.350000    0.350000   -0.350000     1.000000
    0.355000    0.355000   -0.355000     1.000000
    0.360000    0.360000   -0.360000     1.000000
    0.365000    0.365000   -0.365000     1.000000
    0.370000    0.370000   -0.370000     1.000000
    0.375000    0.375000   -0.375000     1.000000
    0.380000    0.380000   -0.380000     1.000000
    0.385000    0.385000   -0.385000     1.000000
    0.390000    0.390000   -0.390000     1.000000
    0.395000    0.395000   -0.395000     1.000000
    0.400000    0.400000   -0.400000     1.000000
    0.405000    0.405000   -0.405000     1.000000
    0.410000    0.410000   -0.410000     1.000000
    0.415000    0.415000   -0.415000     1.000000
    0.420000    0.420000   -0.420000     1.000000
    0.425000    0.425000   -0.425000     1.000000
    0.430000    0.430000   -0.430000     1.000000
    0.435000    0.435000   -0.435000     1.000000
    0.440000    0.440000   -0.440000     1.000000
    0.445000    0.445000   -0.445000     1.000000
    0.450000    0.450000   -0.450000     1.000000
    0.455000    0.455000   -0.455000     1.000000
    0.460000    0.460000   -0.460000     1.000000
    0.465000    0.465000   -0.465000     1.000000
    0.470000    0.470000   -0.470000     1.000000
    0.475000    0.475000   -0.475000     1.000000
    0.480000    0.480000   -0.480000     1.000000
    0.485000    0.485000   -0.485000     1.000000
    0.490000    0.490000   -0.490000     1.000000
    0.495000    0.495000   -0.495000     1.000000
    0.500000    0.500000   -0.500000     1.000000
    0.500000    0.492958   -0.500000     1.000000
    0.500000    0.485915   -0.500000     1.000000
    0.500000    0.478873   -0.500000     1.000000
    0.500000    0.471831   -0.500000     1.000000
    0.500000    0.464789   -0.500000     1.000000
    0.500000    0.457746   -0.500000     1.000000
    0.500000    0.450704   -0.500000     1.000000
    0.500000    0.443662   -0.500000     1.000000
    0.500000    0.436620   -0.500000     1.000000
    0.500000    0.429577   -0.500000     1.000000
    0.500000    0.422535   -0.500000     1.000000
    0.500000    0.415493   -0.500000     1.000000
    0.500000    0.408451   -0.500000     1.000000
    0.500000    0.401408   -0.500000     1.000000
    0.500000    0.394366   -0.500000     1.000000
    0.500000    0.387324   -0.500000     1.000000
    0.500000    0.380282   -0.500000     1.000000
    0.500000    0.373239   -0.500000     1.000000
    0.500000    0.366197   -0.500000     1.000000
    0.500000    0.359155   -0.500000     1.000000
    0.500000    0.352113   -0.500000     1.000000
    0.500000    0.345070   -0.500000     1.000000
    0.500000    0.338028   -0.500000     1.000000
    0.500000    0.330986   -0.500000     1.000000
    0.500000    0.323944   -0.500000     1.000000
    0.500000    0.316901   -0.500000     1.000000
    0.500000    0.309859   -0.500000     1.000000
    0.500000    0.302817   -0.500000     1.000000
    0.500000    0.295775   -0.500000     1.000000
    0.500000    0.288732   -0.500000     1.000000
    0.500000    0.281690   -0.500000     1.000000
    0.500000    0.274648   -0.500000     1.000000
    0.500000    0.267606   -0.500000     1.000000
    0.500000    0.260563   -0.500000     1.000000
    0.500000    0.253521   -0.500000     1.000000
    0.500000    0.246479   -0.500000     1.000000
    0.500000    0.239437   -0.500000     1.000000
    0.500000    0.232394   -0.500000     1.000000
    0.500000    0.225352   -0.500000     1.000000
    0.500000    0.218310   -0.500000     1.000000
    0.500000    0.211268   -0.500000     1.000000
    0.500000    0.204225   -0.500000     1.000000
    0.500000    0.197183   -0.500000     1.000000
    0.500000    0.190141   -0.500000     1.000000
    0.500000    0.183099   -0.500000     1.000000
    0.500000    0.176056   -0.500000     1.000000
    0.500000    0.169014   -0.500000     1.000000
    0.500000    0.161972   -0.500000     1.000000
    0.500000    0.154930   -0.500000     1.000000
    0.500000    0.147887   -0.500000     1.000000
    0.500000    0.140845   -0.500000     1.000000
    0.500000    0.133803   -0.500000     1.000000
    0.500000    0.126761   -0.500000     1.000000
    0.500000    0.119718   -0.500000     1.000000
    0.500000    0.112676   -0.500000     1.000000
    0.500000    0.105634   -0.500000     1.000000
    0.500000    0.098592   -0.500000     1.000000
    0.500000    0.091549   -0.500000     1.000000
    0.500000    0.084507   -0.500000     1.000000
    0.500000    0.077465   -0.500000     1.000000
    0.500000    0.070423   -0.500000     1.000000
    0.500000    0.063380   -0.500000     1.000000
    0.500000    0.056338   -0.500000     1.000000
    0.500000    0.049296   -0.500000     1.000000
    0.500000    0.042254   -0.500000     1.000000
    0.500000    0.035211   -0.500000     1.000000
    0.500000    0.028169   -0.500000     1.000000
    0.500000    0.021127   -0.500000     1.000000
    0.500000    0.014085   -0.500000     1.000000
    0.500000    0.007042   -0.500000     1.000000
    0.500000    0.000000   -0.500000     1.000000
    0.492958    0.000000   -0.492958     1.000000
    0.485915    0.000000   -0.485915     1.000000
    0.478873    0.000000   -0.478873     1.000000
    0.471831    0.000000   -0.471831     1.000000
    0.464789    0.000000   -0.464789     1.000000
    0.457746    0.000000   -0.457746     1.000000
    0.450704    0.000000   -0.450704     1.000000
    0.443662    0.000000   -0.443662     1.000000
    0.436620    0.000000   -0.436620     1.000000
    0.429577    0.000000   -0.429577     1.000000
    0.422535    0.000000   -0.422535     1.000000
    0.415493    0.000000   -0.415493     1.000000
    0.408451    0.000000   -0.408451     1.000000
    0.401408    0.000000   -0.401408     1.000000
    0.394366    0.000000   -0.394366     1.000000
    0.387324    0.000000   -0.387324     1.000000
    0.380282    0.000000   -0.380282     1.000000
    0.373239    0.000000   -0.373239     1.000000
    0.366197    0.000000   -0.366197     1.000000
    0.359155    0.000000   -0.359155     1.000000
    0.352113    0.000000   -0.352113     1.000000
    0.345070    0.000000   -0.345070     1.000000
    0.338028    0.000000   -0.338028     1.000000
    0.330986    0.000000   -0.330986     1.000000
    0.323944    0.000000   -0.323944     1.000000
    0.316901    0.000000   -0.316901     1.000000
    0.309859    0.000000   -0.309859     1.000000
    0.302817    0.000000   -0.302817     1.000000
    0.295775    0.000000   -0.295775     1.000000
    0.288732    0.000000   -0.288732     1.000000
    0.281690    0.000000   -0.281690     1.000000
    0.274648    0.000000   -0.274648     1.000000
    0.267606    0.000000   -0.267606     1.000000
    0.260563    0.000000   -0.260563     1.000000
    0.253521    0.000000   -0.253521     1.000000
    0.246479    0.000000   -0.246479     1.000000
    0.239437    0.000000   -0.239437     1.000000
    0.232394    0.000000   -0.232394     1.000000
    0.225352    0.000000   -0.225352     1.000000
    0.218310    0.000000   -0.218310     1.000000
    0.211268    0.000000   -0.211268     1.000000
    0.204225    0.000000   -0.204225     1.000000
    0.197183    0.000000   -0.197183     1.000000
    0.190141    0.000000   -0.190141     1.000000
    0.183099    0.000000   -0.183099     1.000000
    0.176056    0.000000   -0.176056     1.000000
    0.169014    0.000000   -0.169014     1.000000
    0.161972    0.000000   -0.161972     1.000000
    0.154930    0.000000   -0.154930     1.000000
    0.147887    0.000000   -0.147887     1.000000
    0.140845    0.000000   -0.140845     1.000000
    0.133803    0.000000   -0.133803     1.000000
    0.126761    0.000000   -0.126761     1.000000
    0.119718    0.000000   -0.119718     1.000000
    0.112676    0.000000   -0.112676     1.000000
    0.105634    0.000000   -0.105634     1.000000
    0.098592    0.000000   -0.098592     1.000000
    0.091549    0.000000   -0.091549     1.000000
    0.084507    0.000000   -0.084507     1.000000
    0.077465    0.000000   -0.077465     1.000000
    0.070423    0.000000   -0.070423     1.000000
    0.063380    0.000000   -0.063380     1.000000
    0.056338    0.000000   -0.056338     1.000000
    0.049296    0.000000   -0.049296     1.000000
    0.042254    0.000000   -0.042254     1.000000
    0.035211    0.000000   -0.035211     1.000000
    0.028169    0.000000   -0.028169     1.000000
    0.021127    0.000000   -0.021127     1.000000
    0.014085    0.000000   -0.014085     1.000000
    0.007042    0.000000   -0.007042     1.000000
    0.000000    0.000000    0.000000     1.000000
    0.008621    0.002874   -0.002874     1.000000
    0.017241    0.005747   -0.005747     1.000000
    0.025862    0.008621   -0.008621     1.000000
    0.034483    0.011494   -0.011494     1.000000
    0.043103    0.014368   -0.014368     1.000000
    0.051724    0.017241   -0.017241     1.000000
    0.060345    0.020115   -0.020115     1.000000
    0.068966    0.022989   -0.022989     1.000000
    0.077586    0.025862   -0.025862     1.000000
    0.086207    0.028736   -0.028736     1.000000
    0.094828    0.031609   -0.031609     1.000000
    0.103448    0.034483   -0.034483     1.000000
    0.112069    0.037356   -0.037356     1.000000
    0.120690    0.040230   -0.040230     1.000000
    0.129310    0.043103   -0.043103     1.000000
    0.137931    0.045977   -0.045977     1.000000
    0.146552    0.048851   -0.048851     1.000000
    0.155172    0.051724   -0.051724     1.000000
    0.163793    0.054598   -0.054598     1.000000
    0.172414    0.057471   -0.057471     1.000000
    0.181034    0.060345   -0.060345     1.000000
    0.189655    0.063218   -0.063218     1.000000
    0.198276    0.066092   -0.066092     1.000000
    0.206897    0.068966   -0.068966     1.000000
    0.215517    0.071839   -0.071839     1.000000
    0.224138    0.074713   -0.074713     1.000000
    0.232759    0.077586   -0.077586     1.000000
    0.241379    0.080460   -0.080460     1.000000
    0.250000    0.083333   -0.083333     1.000000
    0.258621    0.086207   -0.086207     1.000000
    0.267241    0.089080   -0.089080     1.000000
    0.275862    0.091954   -0.091954     1.000000
    0.284483    0.094828   -0.094828     1.000000
    0.293103    0.097701   -0.097701     1.000000
    0.301724    0.100575   -0.100575     1.000000
    0.310345    0.103448   -0.103448     1.000000
    0.318966    0.106322   -0.106322     1.000000
    0.327586    0.109195   -0.109195     1.000000
    0.336207    0.112069   -0.112069     1.000000
    0.344828    0.114943   -0.114943     1.000000
    0.353448    0.117816   -0.117816     1.000000
    0.362069    0.120690   -0.120690     1.000000
    0.370690    0.123563   -0.123563     1.000000
    0.379310    0.126437   -0.126437     1.000000
    0.387931    0.129310   -0.129310     1.000000
    0.396552    0.132184   -0.132184     1.000000
    0.405172    0.135057   -0.135057     1.000000
    0.413793    0.137931   -0.137931     1.000000
    0.422414    0.140805   -0.140805     1.000000
    0.431034    0.143678   -0.143678     1.000000
    0.439655    0.146552   -0.146552     1.000000
    0.448276    0.149425   -0.149425     1.000000
    0.456897    0.152299   -0.152299     1.000000
    0.465517    0.155172   -0.155172     1.000000
    0.474138    0.158046   -0.158046     1.000000
    0.482759    0.160920   -0.160920     1.000000
    0.491379    0.163793   -0.163793     1.000000
    0.500000    0.166667   -0.166667     1.000000
    0.508621    0.169540   -0.169540     1.000000
    0.517241    0.172414   -0.172414     1.000000
    0.525862    0.175287   -0.175287     1.000000
    0.534483    0.178161   -0.178161     1.000000
    0.543103    0.181034   -0.181034     1.000000
    0.551724    0.183908   -0.183908     1.000000
    0.560345    0.186782   -0.186782     1.000000
    0.568966    0.189655   -0.189655     1.000000
    0.577586    0.192529   -0.192529     1.000000
    0.586207    0.195402   -0.195402     1.000000
    0.594828    0.198276   -0.198276     1.000000
    0.603448    0.201149   -0.201149     1.000000
    0.612069    0.204023   -0.204023     1.000000
    0.620690    0.206897   -0.206897     1.000000
    0.629310    0.209770   -0.209770     1.000000
    0.637931    0.212644   -0.212644     1.000000
    0.646552    0.215517   -0.215517     1.000000
    0.655172    0.218391   -0.218391     1.000000
    0.663793    0.221264   -0.221264     1.000000
    0.672414    0.224138   -0.224138     1.000000
    0.681034    0.227011   -0.227011     1.000000
    0.689655    0.229885   -0.229885     1.000000
    0.698276    0.232759   -0.232759     1.000000
    0.706897    0.235632   -0.235632     1.000000
    0.715517    0.238506   -0.238506     1.000000
    0.724138    0.241379   -0.241379     1.000000
    0.732759    0.244253   -0.244253     1.000000
    0.741379    0.247126   -0.247126     1.000000
    0.750000    0.250000   -0.250000     1.000000
    0.747126    0.252874   -0.252874     1.000000
    0.744253    0.255747   -0.255747     1.000000
    0.741379    0.258621   -0.258621     1.000000
    0.738506    0.261494   -0.261494     1.000000
    0.735632    0.264368   -0.264368     1.000000
    0.732759    0.267241   -0.267241     1.000000
    0.729885    0.270115   -0.270115     1.000000
    0.727011    0.272989   -0.272989     1.000000
    0.724138    0.275862   -0.275862     1.000000
    0.721264    0.278736   -0.278736     1.000000
    0.718391    0.281609   -0.281609     1.000000
    0.715517    0.284483   -0.284483     1.000000
    0.712644    0.287356   -0.287356     1.000000
    0.709770    0.290230   -0.290230     1.000000
    0.706897    0.293103   -0.293103     1.000000
    0.704023    0.295977   -0.295977     1.000000
    0.701149    0.298851   -0.298851     1.000000
    0.698276    0.301724   -0.301724     1.000000
    0.695402    0.304598   -0.304598     1.000000
    0.692529    0.307471   -0.307471     1.000000
    0.689655    0.310345   -0.310345     1.000000
    0.686782    0.313218   -0.313218     1.000000
    0.683908    0.316092   -0.316092     1.000000
    0.681034    0.318966   -0.318966     1.000000
    0.678161    0.321839   -0.321839     1.000000
    0.675287    0.324713   -0.324713     1.000000
    0.672414    0.327586   -0.327586     1.000000
    0.669540    0.330460   -0.330460     1.000000
    0.666667    0.333333   -0.333333     1.000000
    0.663793    0.336207   -0.336207     1.000000
    0.660920    0.339080   -0.339080     1.000000
    0.658046    0.341954   -0.341954     1.000000
    0.655172    0.344828   -0.344828     1.000000
    0.652299    0.347701   -0.347701     1.000000
    0.649425    0.350575   -0.350575     1.000000
    0.646552    0.353448   -0.353448     1.000000
    0.643678    0.356322   -0.356322     1.000000
    0.640805    0.359195   -0.359195     1.000000
    0.637931    0.362069   -0.362069     1.000000
    0.635057    0.364943   -0.364943     1.000000
    0.632184    0.367816   -0.367816     1.000000
    0.629310    0.370690   -0.370690     1.000000
    0.626437    0.373563   -0.373563     1.000000
    0.623563    0.376437   -0.376437     1.000000
    0.620690    0.379310   -0.379310     1.000000
    0.617816    0.382184   -0.382184     1.000000
    0.614943    0.385057   -0.385057     1.000000
    0.612069    0.387931   -0.387931     1.000000
    0.609195    0.390805   -0.390805     1.000000
    0.606322    0.393678   -0.393678     1.000000
    0.603448    0.396552   -0.396552     1.000000
    0.600575    0.399425   -0.399425     1.000000
    0.597701    0.402299   -0.402299     1.000000
    0.594828    0.405172   -0.405172     1.000000
    0.591954    0.408046   -0.408046     1.000000
    0.589080    0.410920   -0.410920     1.000000
    0.586207    0.413793   -0.413793     1.000000
    0.583333    0.416667   -0.416667     1.000000
    0.580460    0.419540   -0.419540     1.000000
    0.577586    0.422414   -0.422414     1.000000
    0.574713    0.425287   -0.425287     1.000000
    0.571839    0.428161   -0.428161     1.000000
    0.568966    0.431034   -0.431034     1.000000
    0.566092    0.433908   -0.433908     1.000000
    0.563218    0.436782   -0.436782     1.000000
    0.560345    0.439655   -0.439655     1.000000
    0.557471    0.442529   -0.442529     1.000000
    0.554598    0.445402   -0.445402     1.000000
    0.551724    0.448276   -0.448276     1.000000
    0.548851    0.451149   -0.451149     1.000000
    0.545977    0.454023   -0.454023     1.000000
    0.543103    0.456897   -0.456897     1.000000
    0.540230    0.459770   -0.459770     1.000000
    0.537356    0.462644   -0.462644     1.000000
    0.534483    0.465517   -0.465517     1.000000
    0.531609    0.468391   -0.468391     1.000000
    0.528736    0.471264   -0.471264     1.000000
    0.525862    0.474138   -0.474138     1.000000
    0.522989    0.477011   -0.477011     1.000000
    0.520115    0.479885   -0.479885     1.000000
    0.517241    0.482759   -0.482759     1.000000
    0.514368    0.485632   -0.485632     1.000000
    0.511494    0.488506   -0.488506     1.000000
    0.508621    0.491379   -0.491379     1.000000
    0.505747    0.494253   -0.494253     1.000000
    0.502874    0.497126   -0.497126     1.000000
    0.500000    0.500000   -0.500000     1.000000
    0.750000    0.250000   -0.250000     1.000000
    0.745000    0.245000   -0.255000     1.000000
    0.740000    0.240000   -0.260000     1.000000
    0.735000    0.235000   -0.265000     1.000000
    0.730000    0.230000   -0.270000     1.000000
    0.725000    0.225000   -0.275000     1.000000
    0.720000    0.220000   -0.280000     1.000000
    0.715000    0.215000   -0.285000     1.000000
    0.710000    0.210000   -0.290000     1.000000
    0.705000    0.205000   -0.295000     1.000000
    0.700000    0.200000   -0.300000     1.000000
    0.695000    0.195000   -0.305000     1.000000
    0.690000    0.190000   -0.310000     1.000000
    0.685000    0.185000   -0.315000     1.000000
    0.680000    0.180000   -0.320000     1.000000
    0.675000    0.175000   -0.325000     1.000000
    0.670000    0.170000   -0.330000     1.000000
    0.665000    0.165000   -0.335000     1.000000
    0.660000    0.160000   -0.340000     1.000000
    0.655000    0.155000   -0.345000     1.000000
    0.650000    0.150000   -0.350000     1.000000
    0.645000    0.145000   -0.355000     1.000000
    0.640000    0.140000   -0.360000     1.000000
    0.635000    0.135000   -0.365000     1.000000
    0.630000    0.130000   -0.370000     1.000000
    0.625000    0.125000   -0.375000     1.000000
    0.620000    0.120000   -0.380000     1.000000
    0.615000    0.115000   -0.385000     1.000000
    0.610000    0.110000   -0.390000     1.000000
    0.605000    0.105000   -0.395000     1.000000
    0.600000    0.100000   -0.400000     1.000000
    0.595000    0.095000   -0.405000     1.000000
    0.590000    0.090000   -0.410000     1.000000
    0.585000    0.085000   -0.415000     1.000000
    0.580000    0.080000   -0.420000     1.000000
    0.575000    0.075000   -0.425000     1.000000
    0.570000    0.070000   -0.430000     1.000000
    0.565000    0.065000   -0.435000     1.000000
    0.560000    0.060000   -0.440000     1.000000
    0.555000    0.055000   -0.445000     1.000000
    0.550000    0.050000   -0.450000     1.000000
    0.545000    0.045000   -0.455000     1.000000
    0.540000    0.040000   -0.460000     1.000000
    0.535000    0.035000   -0.465000     1.000000
    0.530000    0.030000   -0.470000     1.000000
    0.525000    0.025000   -0.475000     1.000000
    0.520000    0.020000   -0.480000     1.000000
    0.515000    0.015000   -0.485000     1.000000
    0.510000    0.010000   -0.490000     1.000000
    0.505000    0.005000   -0.495000     1.000000
    0.500000    0.000000   -0.500000     1.000000
