&control
  calculation = 'nscf'
  restart_mode = 'from_scratch'
  pseudo_dir = '../../../pseudo/nc-fr-04_pbe_standard/'
  outdir = 'out/'
  prefix = 'Fe'
/
&system
  ibrav = 3
  celldm(1) = 5.4235
  nat = 1
  ntyp = 1
  ecutwfc = 90
  ecutrho = 1080
  lspinorb = .true.
  noncolin = .true.
  starting_magnetization(1) = -1
  nbnd = 30
  occupations = 'smearing'
  smearing = 'cold'
  degauss = 0.02
  nosym = .true.
/
&electrons
  ! startingwfc = 'random'
  ! diagonalization = 'cg'
  conv_thr = 1.0e-10
/
ATOMIC_SPECIES
Fe 55.85 Fe.upf
ATOMIC_POSITIONS
Fe 0.0 0.0 0.0
K_POINTS crystal
125
  0.00000000  0.00000000  0.00000000  8.000000e-03
  0.00000000  0.00000000  0.20000000  8.000000e-03
  0.00000000  0.00000000  0.40000000  8.000000e-03
  0.00000000  0.00000000  0.60000000  8.000000e-03
  0.00000000  0.00000000  0.80000000  8.000000e-03
  0.00000000  0.20000000  0.00000000  8.000000e-03
  0.00000000  0.20000000  0.20000000  8.000000e-03
  0.00000000  0.20000000  0.40000000  8.000000e-03
  0.00000000  0.20000000  0.60000000  8.000000e-03
  0.00000000  0.20000000  0.80000000  8.000000e-03
  0.00000000  0.40000000  0.00000000  8.000000e-03
  0.00000000  0.40000000  0.20000000  8.000000e-03
  0.00000000  0.40000000  0.40000000  8.000000e-03
  0.00000000  0.40000000  0.60000000  8.000000e-03
  0.00000000  0.40000000  0.80000000  8.000000e-03
  0.00000000  0.60000000  0.00000000  8.000000e-03
  0.00000000  0.60000000  0.20000000  8.000000e-03
  0.00000000  0.60000000  0.40000000  8.000000e-03
  0.00000000  0.60000000  0.60000000  8.000000e-03
  0.00000000  0.60000000  0.80000000  8.000000e-03
  0.00000000  0.80000000  0.00000000  8.000000e-03
  0.00000000  0.80000000  0.20000000  8.000000e-03
  0.00000000  0.80000000  0.40000000  8.000000e-03
  0.00000000  0.80000000  0.60000000  8.000000e-03
  0.00000000  0.80000000  0.80000000  8.000000e-03
  0.20000000  0.00000000  0.00000000  8.000000e-03
  0.20000000  0.00000000  0.20000000  8.000000e-03
  0.20000000  0.00000000  0.40000000  8.000000e-03
  0.20000000  0.00000000  0.60000000  8.000000e-03
  0.20000000  0.00000000  0.80000000  8.000000e-03
  0.20000000  0.20000000  0.00000000  8.000000e-03
  0.20000000  0.20000000  0.20000000  8.000000e-03
  0.20000000  0.20000000  0.40000000  8.000000e-03
  0.20000000  0.20000000  0.60000000  8.000000e-03
  0.20000000  0.20000000  0.80000000  8.000000e-03
  0.20000000  0.40000000  0.00000000  8.000000e-03
  0.20000000  0.40000000  0.20000000  8.000000e-03
  0.20000000  0.40000000  0.40000000  8.000000e-03
  0.20000000  0.40000000  0.60000000  8.000000e-03
  0.20000000  0.40000000  0.80000000  8.000000e-03
  0.20000000  0.60000000  0.00000000  8.000000e-03
  0.20000000  0.60000000  0.20000000  8.000000e-03
  0.20000000  0.60000000  0.40000000  8.000000e-03
  0.20000000  0.60000000  0.60000000  8.000000e-03
  0.20000000  0.60000000  0.80000000  8.000000e-03
  0.20000000  0.80000000  0.00000000  8.000000e-03
  0.20000000  0.80000000  0.20000000  8.000000e-03
  0.20000000  0.80000000  0.40000000  8.000000e-03
  0.20000000  0.80000000  0.60000000  8.000000e-03
  0.20000000  0.80000000  0.80000000  8.000000e-03
  0.40000000  0.00000000  0.00000000  8.000000e-03
  0.40000000  0.00000000  0.20000000  8.000000e-03
  0.40000000  0.00000000  0.40000000  8.000000e-03
  0.40000000  0.00000000  0.60000000  8.000000e-03
  0.40000000  0.00000000  0.80000000  8.000000e-03
  0.40000000  0.20000000  0.00000000  8.000000e-03
  0.40000000  0.20000000  0.20000000  8.000000e-03
  0.40000000  0.20000000  0.40000000  8.000000e-03
  0.40000000  0.20000000  0.60000000  8.000000e-03
  0.40000000  0.20000000  0.80000000  8.000000e-03
  0.40000000  0.40000000  0.00000000  8.000000e-03
  0.40000000  0.40000000  0.20000000  8.000000e-03
  0.40000000  0.40000000  0.40000000  8.000000e-03
  0.40000000  0.40000000  0.60000000  8.000000e-03
  0.40000000  0.40000000  0.80000000  8.000000e-03
  0.40000000  0.60000000  0.00000000  8.000000e-03
  0.40000000  0.60000000  0.20000000  8.000000e-03
  0.40000000  0.60000000  0.40000000  8.000000e-03
  0.40000000  0.60000000  0.60000000  8.000000e-03
  0.40000000  0.60000000  0.80000000  8.000000e-03
  0.40000000  0.80000000  0.00000000  8.000000e-03
  0.40000000  0.80000000  0.20000000  8.000000e-03
  0.40000000  0.80000000  0.40000000  8.000000e-03
  0.40000000  0.80000000  0.60000000  8.000000e-03
  0.40000000  0.80000000  0.80000000  8.000000e-03
  0.60000000  0.00000000  0.00000000  8.000000e-03
  0.60000000  0.00000000  0.20000000  8.000000e-03
  0.60000000  0.00000000  0.40000000  8.000000e-03
  0.60000000  0.00000000  0.60000000  8.000000e-03
  0.60000000  0.00000000  0.80000000  8.000000e-03
  0.60000000  0.20000000  0.00000000  8.000000e-03
  0.60000000  0.20000000  0.20000000  8.000000e-03
  0.60000000  0.20000000  0.40000000  8.000000e-03
  0.60000000  0.20000000  0.60000000  8.000000e-03
  0.60000000  0.20000000  0.80000000  8.000000e-03
  0.60000000  0.40000000  0.00000000  8.000000e-03
  0.60000000  0.40000000  0.20000000  8.000000e-03
  0.60000000  0.40000000  0.40000000  8.000000e-03
  0.60000000  0.40000000  0.60000000  8.000000e-03
  0.60000000  0.40000000  0.80000000  8.000000e-03
  0.60000000  0.60000000  0.00000000  8.000000e-03
  0.60000000  0.60000000  0.20000000  8.000000e-03
  0.60000000  0.60000000  0.40000000  8.000000e-03
  0.60000000  0.60000000  0.60000000  8.000000e-03
  0.60000000  0.60000000  0.80000000  8.000000e-03
  0.60000000  0.80000000  0.00000000  8.000000e-03
  0.60000000  0.80000000  0.20000000  8.000000e-03
  0.60000000  0.80000000  0.40000000  8.000000e-03
  0.60000000  0.80000000  0.60000000  8.000000e-03
  0.60000000  0.80000000  0.80000000  8.000000e-03
  0.80000000  0.00000000  0.00000000  8.000000e-03
  0.80000000  0.00000000  0.20000000  8.000000e-03
  0.80000000  0.00000000  0.40000000  8.000000e-03
  0.80000000  0.00000000  0.60000000  8.000000e-03
  0.80000000  0.00000000  0.80000000  8.000000e-03
  0.80000000  0.20000000  0.00000000  8.000000e-03
  0.80000000  0.20000000  0.20000000  8.000000e-03
  0.80000000  0.20000000  0.40000000  8.000000e-03
  0.80000000  0.20000000  0.60000000  8.000000e-03
  0.80000000  0.20000000  0.80000000  8.000000e-03
  0.80000000  0.40000000  0.00000000  8.000000e-03
  0.80000000  0.40000000  0.20000000  8.000000e-03
  0.80000000  0.40000000  0.40000000  8.000000e-03
  0.80000000  0.40000000  0.60000000  8.000000e-03
  0.80000000  0.40000000  0.80000000  8.000000e-03
  0.80000000  0.60000000  0.00000000  8.000000e-03
  0.80000000  0.60000000  0.20000000  8.000000e-03
  0.80000000  0.60000000  0.40000000  8.000000e-03
  0.80000000  0.60000000  0.60000000  8.000000e-03
  0.80000000  0.60000000  0.80000000  8.000000e-03
  0.80000000  0.80000000  0.00000000  8.000000e-03
  0.80000000  0.80000000  0.20000000  8.000000e-03
  0.80000000  0.80000000  0.40000000  8.000000e-03
  0.80000000  0.80000000  0.60000000  8.000000e-03
  0.80000000  0.80000000  0.80000000  8.000000e-03
