&inputpp
   outdir = 'out/'
   prefix = 'Fe'
   seedname = 'Fe'
   write_mmn = .true.
   write_amn = .true.
   write_spn = .true.
   write_unk = .false.
   write_uHu = .true.
!  uHu_formatted = .true.
/
