&CONTROL
  calculation = 'nscf'
  etot_conv_thr =   3.0000000000d-05
  forc_conv_thr =   1.0000000000d-04
  max_seconds =   4.1040000000d+04
  outdir = './out/'
  prefix = 'MoS2'
  pseudo_dir = '../../pseudo/'
  restart_mode = 'from_scratch'
  tprnfor = .true.
  tstress = .true.
  verbosity = 'high'
/
&SYSTEM
  degauss =   1.0000000000d-02
  ecutrho =   2.8000000000d+02
  ecutwfc =   3.5000000000d+01
  ibrav = 0
  nat = 3
  nbnd = 17
  noinv = .true.
  nosym = .true.
  ntyp = 2
  occupations = 'smearing'
  smearing = 'cold'
/
&ELECTRONS
  conv_thr =   6.0000000000d-10
  diago_full_acc = .true.
  electron_maxstep = 80
  mixing_beta =   4.0000000000d-01
  startingpot = 'file'
/
ATOMIC_SPECIES
Mo     95.95 Mo_ONCV_PBEsol-1.0.upf
S      32.06 s_pbesol_v1.4.uspp.F.UPF
ATOMIC_POSITIONS angstrom
Mo           0.0000000000       0.0000000000       0.0000000000
S            0.0000000000       1.8421191469      -1.5620440727
S            0.0000000000       1.8421191469       1.5620440727
CELL_PARAMETERS angstrom
      3.1906439561       0.0000000000       0.0000000000
     -1.5953219780       2.7631787204       0.0000000000
      0.0000000000       0.0000000000      10.0000000000
K_POINTS crystal
9
  0.00000000  0.00000000  0.00000000  1.111111e-01
  0.00000000  0.33333333  0.00000000  1.111111e-01
  0.00000000  0.66666667  0.00000000  1.111111e-01
  0.33333333  0.00000000  0.00000000  1.111111e-01
  0.33333333  0.33333333  0.00000000  1.111111e-01
  0.33333333  0.66666667  0.00000000  1.111111e-01
  0.66666667  0.00000000  0.00000000  1.111111e-01
  0.66666667  0.33333333  0.00000000  1.111111e-01
  0.66666667  0.66666667  0.00000000  1.111111e-01
