&INPUTPP
  outdir = './out/'
  prefix = 'MoS2'
  seedname = 'MoS2'
  spn_formatted = .true.
  write_unk = .true.
  reduce_unk = .true.
  reduce_unk_factor = 4
  wvfn_formatted = .true.
/
