&PROJWFC
  deltae =   2.0000000000d-01
! lsym = .true.
  outdir = './out'
  prefix = 'MoS2'
  filproj = 'MoS2.proj.dat'
/
