&CONTROL
  calculation = 'nscf'
  etot_conv_thr =   2.0000000000d-05
  forc_conv_thr =   1.0000000000d-04
  max_seconds =   4.1040000000d+04
  outdir = './out/'
  prefix = 'si2'
  pseudo_dir = '../../../pseudo/'
  restart_mode = 'from_scratch'
  tprnfor = .true.
  tstress = .true.
  verbosity = 'high'
/
&SYSTEM
  degauss =   1.0000000000d-02
  ecutrho =   2.4000000000d+02
  ecutwfc =   3.0000000000d+01
  ibrav = 0
  nat = 2
  nbnd = 16
  noinv = .true.
  nosym = .true.
  ntyp = 1
  occupations = 'smearing'
  smearing = 'cold'
/
&ELECTRONS
  conv_thr =   4.0000000000d-10
  diago_full_acc = .true.
  electron_maxstep = 80
  mixing_beta =   4.0000000000d-01
  startingpot = 'file'
/
ATOMIC_SPECIES
Si     28.085 Si.pbesol-n-rrkjus_psl.1.0.0.UPF
ATOMIC_POSITIONS crystal
Si         0.0000000000       0.0000000000       0.0000000000
Si         0.2500000000       0.2500000000       0.2500000000
CELL_PARAMETERS angstrom
      0.0000000000       2.7152650000       2.7152650000
      2.7152650000       0.0000000000       2.7152650000
      2.7152650000       2.7152650000       0.0000000000
K_POINTS crystal
729
  0.00000000  0.00000000  0.00000000  1.371742e-03
  0.00000000  0.00000000  0.11111111  1.371742e-03
  0.00000000  0.00000000  0.22222222  1.371742e-03
  0.00000000  0.00000000  0.33333333  1.371742e-03
  0.00000000  0.00000000  0.44444444  1.371742e-03
  0.00000000  0.00000000  0.55555556  1.371742e-03
  0.00000000  0.00000000  0.66666667  1.371742e-03
  0.00000000  0.00000000  0.77777778  1.371742e-03
  0.00000000  0.00000000  0.88888889  1.371742e-03
  0.00000000  0.11111111  0.00000000  1.371742e-03
  0.00000000  0.11111111  0.11111111  1.371742e-03
  0.00000000  0.11111111  0.22222222  1.371742e-03
  0.00000000  0.11111111  0.33333333  1.371742e-03
  0.00000000  0.11111111  0.44444444  1.371742e-03
  0.00000000  0.11111111  0.55555556  1.371742e-03
  0.00000000  0.11111111  0.66666667  1.371742e-03
  0.00000000  0.11111111  0.77777778  1.371742e-03
  0.00000000  0.11111111  0.88888889  1.371742e-03
  0.00000000  0.22222222  0.00000000  1.371742e-03
  0.00000000  0.22222222  0.11111111  1.371742e-03
  0.00000000  0.22222222  0.22222222  1.371742e-03
  0.00000000  0.22222222  0.33333333  1.371742e-03
  0.00000000  0.22222222  0.44444444  1.371742e-03
  0.00000000  0.22222222  0.55555556  1.371742e-03
  0.00000000  0.22222222  0.66666667  1.371742e-03
  0.00000000  0.22222222  0.77777778  1.371742e-03
  0.00000000  0.22222222  0.88888889  1.371742e-03
  0.00000000  0.33333333  0.00000000  1.371742e-03
  0.00000000  0.33333333  0.11111111  1.371742e-03
  0.00000000  0.33333333  0.22222222  1.371742e-03
  0.00000000  0.33333333  0.33333333  1.371742e-03
  0.00000000  0.33333333  0.44444444  1.371742e-03
  0.00000000  0.33333333  0.55555556  1.371742e-03
  0.00000000  0.33333333  0.66666667  1.371742e-03
  0.00000000  0.33333333  0.77777778  1.371742e-03
  0.00000000  0.33333333  0.88888889  1.371742e-03
  0.00000000  0.44444444  0.00000000  1.371742e-03
  0.00000000  0.44444444  0.11111111  1.371742e-03
  0.00000000  0.44444444  0.22222222  1.371742e-03
  0.00000000  0.44444444  0.33333333  1.371742e-03
  0.00000000  0.44444444  0.44444444  1.371742e-03
  0.00000000  0.44444444  0.55555556  1.371742e-03
  0.00000000  0.44444444  0.66666667  1.371742e-03
  0.00000000  0.44444444  0.77777778  1.371742e-03
  0.00000000  0.44444444  0.88888889  1.371742e-03
  0.00000000  0.55555556  0.00000000  1.371742e-03
  0.00000000  0.55555556  0.11111111  1.371742e-03
  0.00000000  0.55555556  0.22222222  1.371742e-03
  0.00000000  0.55555556  0.33333333  1.371742e-03
  0.00000000  0.55555556  0.44444444  1.371742e-03
  0.00000000  0.55555556  0.55555556  1.371742e-03
  0.00000000  0.55555556  0.66666667  1.371742e-03
  0.00000000  0.55555556  0.77777778  1.371742e-03
  0.00000000  0.55555556  0.88888889  1.371742e-03
  0.00000000  0.66666667  0.00000000  1.371742e-03
  0.00000000  0.66666667  0.11111111  1.371742e-03
  0.00000000  0.66666667  0.22222222  1.371742e-03
  0.00000000  0.66666667  0.33333333  1.371742e-03
  0.00000000  0.66666667  0.44444444  1.371742e-03
  0.00000000  0.66666667  0.55555556  1.371742e-03
  0.00000000  0.66666667  0.66666667  1.371742e-03
  0.00000000  0.66666667  0.77777778  1.371742e-03
  0.00000000  0.66666667  0.88888889  1.371742e-03
  0.00000000  0.77777778  0.00000000  1.371742e-03
  0.00000000  0.77777778  0.11111111  1.371742e-03
  0.00000000  0.77777778  0.22222222  1.371742e-03
  0.00000000  0.77777778  0.33333333  1.371742e-03
  0.00000000  0.77777778  0.44444444  1.371742e-03
  0.00000000  0.77777778  0.55555556  1.371742e-03
  0.00000000  0.77777778  0.66666667  1.371742e-03
  0.00000000  0.77777778  0.77777778  1.371742e-03
  0.00000000  0.77777778  0.88888889  1.371742e-03
  0.00000000  0.88888889  0.00000000  1.371742e-03
  0.00000000  0.88888889  0.11111111  1.371742e-03
  0.00000000  0.88888889  0.22222222  1.371742e-03
  0.00000000  0.88888889  0.33333333  1.371742e-03
  0.00000000  0.88888889  0.44444444  1.371742e-03
  0.00000000  0.88888889  0.55555556  1.371742e-03
  0.00000000  0.88888889  0.66666667  1.371742e-03
  0.00000000  0.88888889  0.77777778  1.371742e-03
  0.00000000  0.88888889  0.88888889  1.371742e-03
  0.11111111  0.00000000  0.00000000  1.371742e-03
  0.11111111  0.00000000  0.11111111  1.371742e-03
  0.11111111  0.00000000  0.22222222  1.371742e-03
  0.11111111  0.00000000  0.33333333  1.371742e-03
  0.11111111  0.00000000  0.44444444  1.371742e-03
  0.11111111  0.00000000  0.55555556  1.371742e-03
  0.11111111  0.00000000  0.66666667  1.371742e-03
  0.11111111  0.00000000  0.77777778  1.371742e-03
  0.11111111  0.00000000  0.88888889  1.371742e-03
  0.11111111  0.11111111  0.00000000  1.371742e-03
  0.11111111  0.11111111  0.11111111  1.371742e-03
  0.11111111  0.11111111  0.22222222  1.371742e-03
  0.11111111  0.11111111  0.33333333  1.371742e-03
  0.11111111  0.11111111  0.44444444  1.371742e-03
  0.11111111  0.11111111  0.55555556  1.371742e-03
  0.11111111  0.11111111  0.66666667  1.371742e-03
  0.11111111  0.11111111  0.77777778  1.371742e-03
  0.11111111  0.11111111  0.88888889  1.371742e-03
  0.11111111  0.22222222  0.00000000  1.371742e-03
  0.11111111  0.22222222  0.11111111  1.371742e-03
  0.11111111  0.22222222  0.22222222  1.371742e-03
  0.11111111  0.22222222  0.33333333  1.371742e-03
  0.11111111  0.22222222  0.44444444  1.371742e-03
  0.11111111  0.22222222  0.55555556  1.371742e-03
  0.11111111  0.22222222  0.66666667  1.371742e-03
  0.11111111  0.22222222  0.77777778  1.371742e-03
  0.11111111  0.22222222  0.88888889  1.371742e-03
  0.11111111  0.33333333  0.00000000  1.371742e-03
  0.11111111  0.33333333  0.11111111  1.371742e-03
  0.11111111  0.33333333  0.22222222  1.371742e-03
  0.11111111  0.33333333  0.33333333  1.371742e-03
  0.11111111  0.33333333  0.44444444  1.371742e-03
  0.11111111  0.33333333  0.55555556  1.371742e-03
  0.11111111  0.33333333  0.66666667  1.371742e-03
  0.11111111  0.33333333  0.77777778  1.371742e-03
  0.11111111  0.33333333  0.88888889  1.371742e-03
  0.11111111  0.44444444  0.00000000  1.371742e-03
  0.11111111  0.44444444  0.11111111  1.371742e-03
  0.11111111  0.44444444  0.22222222  1.371742e-03
  0.11111111  0.44444444  0.33333333  1.371742e-03
  0.11111111  0.44444444  0.44444444  1.371742e-03
  0.11111111  0.44444444  0.55555556  1.371742e-03
  0.11111111  0.44444444  0.66666667  1.371742e-03
  0.11111111  0.44444444  0.77777778  1.371742e-03
  0.11111111  0.44444444  0.88888889  1.371742e-03
  0.11111111  0.55555556  0.00000000  1.371742e-03
  0.11111111  0.55555556  0.11111111  1.371742e-03
  0.11111111  0.55555556  0.22222222  1.371742e-03
  0.11111111  0.55555556  0.33333333  1.371742e-03
  0.11111111  0.55555556  0.44444444  1.371742e-03
  0.11111111  0.55555556  0.55555556  1.371742e-03
  0.11111111  0.55555556  0.66666667  1.371742e-03
  0.11111111  0.55555556  0.77777778  1.371742e-03
  0.11111111  0.55555556  0.88888889  1.371742e-03
  0.11111111  0.66666667  0.00000000  1.371742e-03
  0.11111111  0.66666667  0.11111111  1.371742e-03
  0.11111111  0.66666667  0.22222222  1.371742e-03
  0.11111111  0.66666667  0.33333333  1.371742e-03
  0.11111111  0.66666667  0.44444444  1.371742e-03
  0.11111111  0.66666667  0.55555556  1.371742e-03
  0.11111111  0.66666667  0.66666667  1.371742e-03
  0.11111111  0.66666667  0.77777778  1.371742e-03
  0.11111111  0.66666667  0.88888889  1.371742e-03
  0.11111111  0.77777778  0.00000000  1.371742e-03
  0.11111111  0.77777778  0.11111111  1.371742e-03
  0.11111111  0.77777778  0.22222222  1.371742e-03
  0.11111111  0.77777778  0.33333333  1.371742e-03
  0.11111111  0.77777778  0.44444444  1.371742e-03
  0.11111111  0.77777778  0.55555556  1.371742e-03
  0.11111111  0.77777778  0.66666667  1.371742e-03
  0.11111111  0.77777778  0.77777778  1.371742e-03
  0.11111111  0.77777778  0.88888889  1.371742e-03
  0.11111111  0.88888889  0.00000000  1.371742e-03
  0.11111111  0.88888889  0.11111111  1.371742e-03
  0.11111111  0.88888889  0.22222222  1.371742e-03
  0.11111111  0.88888889  0.33333333  1.371742e-03
  0.11111111  0.88888889  0.44444444  1.371742e-03
  0.11111111  0.88888889  0.55555556  1.371742e-03
  0.11111111  0.88888889  0.66666667  1.371742e-03
  0.11111111  0.88888889  0.77777778  1.371742e-03
  0.11111111  0.88888889  0.88888889  1.371742e-03
  0.22222222  0.00000000  0.00000000  1.371742e-03
  0.22222222  0.00000000  0.11111111  1.371742e-03
  0.22222222  0.00000000  0.22222222  1.371742e-03
  0.22222222  0.00000000  0.33333333  1.371742e-03
  0.22222222  0.00000000  0.44444444  1.371742e-03
  0.22222222  0.00000000  0.55555556  1.371742e-03
  0.22222222  0.00000000  0.66666667  1.371742e-03
  0.22222222  0.00000000  0.77777778  1.371742e-03
  0.22222222  0.00000000  0.88888889  1.371742e-03
  0.22222222  0.11111111  0.00000000  1.371742e-03
  0.22222222  0.11111111  0.11111111  1.371742e-03
  0.22222222  0.11111111  0.22222222  1.371742e-03
  0.22222222  0.11111111  0.33333333  1.371742e-03
  0.22222222  0.11111111  0.44444444  1.371742e-03
  0.22222222  0.11111111  0.55555556  1.371742e-03
  0.22222222  0.11111111  0.66666667  1.371742e-03
  0.22222222  0.11111111  0.77777778  1.371742e-03
  0.22222222  0.11111111  0.88888889  1.371742e-03
  0.22222222  0.22222222  0.00000000  1.371742e-03
  0.22222222  0.22222222  0.11111111  1.371742e-03
  0.22222222  0.22222222  0.22222222  1.371742e-03
  0.22222222  0.22222222  0.33333333  1.371742e-03
  0.22222222  0.22222222  0.44444444  1.371742e-03
  0.22222222  0.22222222  0.55555556  1.371742e-03
  0.22222222  0.22222222  0.66666667  1.371742e-03
  0.22222222  0.22222222  0.77777778  1.371742e-03
  0.22222222  0.22222222  0.88888889  1.371742e-03
  0.22222222  0.33333333  0.00000000  1.371742e-03
  0.22222222  0.33333333  0.11111111  1.371742e-03
  0.22222222  0.33333333  0.22222222  1.371742e-03
  0.22222222  0.33333333  0.33333333  1.371742e-03
  0.22222222  0.33333333  0.44444444  1.371742e-03
  0.22222222  0.33333333  0.55555556  1.371742e-03
  0.22222222  0.33333333  0.66666667  1.371742e-03
  0.22222222  0.33333333  0.77777778  1.371742e-03
  0.22222222  0.33333333  0.88888889  1.371742e-03
  0.22222222  0.44444444  0.00000000  1.371742e-03
  0.22222222  0.44444444  0.11111111  1.371742e-03
  0.22222222  0.44444444  0.22222222  1.371742e-03
  0.22222222  0.44444444  0.33333333  1.371742e-03
  0.22222222  0.44444444  0.44444444  1.371742e-03
  0.22222222  0.44444444  0.55555556  1.371742e-03
  0.22222222  0.44444444  0.66666667  1.371742e-03
  0.22222222  0.44444444  0.77777778  1.371742e-03
  0.22222222  0.44444444  0.88888889  1.371742e-03
  0.22222222  0.55555556  0.00000000  1.371742e-03
  0.22222222  0.55555556  0.11111111  1.371742e-03
  0.22222222  0.55555556  0.22222222  1.371742e-03
  0.22222222  0.55555556  0.33333333  1.371742e-03
  0.22222222  0.55555556  0.44444444  1.371742e-03
  0.22222222  0.55555556  0.55555556  1.371742e-03
  0.22222222  0.55555556  0.66666667  1.371742e-03
  0.22222222  0.55555556  0.77777778  1.371742e-03
  0.22222222  0.55555556  0.88888889  1.371742e-03
  0.22222222  0.66666667  0.00000000  1.371742e-03
  0.22222222  0.66666667  0.11111111  1.371742e-03
  0.22222222  0.66666667  0.22222222  1.371742e-03
  0.22222222  0.66666667  0.33333333  1.371742e-03
  0.22222222  0.66666667  0.44444444  1.371742e-03
  0.22222222  0.66666667  0.55555556  1.371742e-03
  0.22222222  0.66666667  0.66666667  1.371742e-03
  0.22222222  0.66666667  0.77777778  1.371742e-03
  0.22222222  0.66666667  0.88888889  1.371742e-03
  0.22222222  0.77777778  0.00000000  1.371742e-03
  0.22222222  0.77777778  0.11111111  1.371742e-03
  0.22222222  0.77777778  0.22222222  1.371742e-03
  0.22222222  0.77777778  0.33333333  1.371742e-03
  0.22222222  0.77777778  0.44444444  1.371742e-03
  0.22222222  0.77777778  0.55555556  1.371742e-03
  0.22222222  0.77777778  0.66666667  1.371742e-03
  0.22222222  0.77777778  0.77777778  1.371742e-03
  0.22222222  0.77777778  0.88888889  1.371742e-03
  0.22222222  0.88888889  0.00000000  1.371742e-03
  0.22222222  0.88888889  0.11111111  1.371742e-03
  0.22222222  0.88888889  0.22222222  1.371742e-03
  0.22222222  0.88888889  0.33333333  1.371742e-03
  0.22222222  0.88888889  0.44444444  1.371742e-03
  0.22222222  0.88888889  0.55555556  1.371742e-03
  0.22222222  0.88888889  0.66666667  1.371742e-03
  0.22222222  0.88888889  0.77777778  1.371742e-03
  0.22222222  0.88888889  0.88888889  1.371742e-03
  0.33333333  0.00000000  0.00000000  1.371742e-03
  0.33333333  0.00000000  0.11111111  1.371742e-03
  0.33333333  0.00000000  0.22222222  1.371742e-03
  0.33333333  0.00000000  0.33333333  1.371742e-03
  0.33333333  0.00000000  0.44444444  1.371742e-03
  0.33333333  0.00000000  0.55555556  1.371742e-03
  0.33333333  0.00000000  0.66666667  1.371742e-03
  0.33333333  0.00000000  0.77777778  1.371742e-03
  0.33333333  0.00000000  0.88888889  1.371742e-03
  0.33333333  0.11111111  0.00000000  1.371742e-03
  0.33333333  0.11111111  0.11111111  1.371742e-03
  0.33333333  0.11111111  0.22222222  1.371742e-03
  0.33333333  0.11111111  0.33333333  1.371742e-03
  0.33333333  0.11111111  0.44444444  1.371742e-03
  0.33333333  0.11111111  0.55555556  1.371742e-03
  0.33333333  0.11111111  0.66666667  1.371742e-03
  0.33333333  0.11111111  0.77777778  1.371742e-03
  0.33333333  0.11111111  0.88888889  1.371742e-03
  0.33333333  0.22222222  0.00000000  1.371742e-03
  0.33333333  0.22222222  0.11111111  1.371742e-03
  0.33333333  0.22222222  0.22222222  1.371742e-03
  0.33333333  0.22222222  0.33333333  1.371742e-03
  0.33333333  0.22222222  0.44444444  1.371742e-03
  0.33333333  0.22222222  0.55555556  1.371742e-03
  0.33333333  0.22222222  0.66666667  1.371742e-03
  0.33333333  0.22222222  0.77777778  1.371742e-03
  0.33333333  0.22222222  0.88888889  1.371742e-03
  0.33333333  0.33333333  0.00000000  1.371742e-03
  0.33333333  0.33333333  0.11111111  1.371742e-03
  0.33333333  0.33333333  0.22222222  1.371742e-03
  0.33333333  0.33333333  0.33333333  1.371742e-03
  0.33333333  0.33333333  0.44444444  1.371742e-03
  0.33333333  0.33333333  0.55555556  1.371742e-03
  0.33333333  0.33333333  0.66666667  1.371742e-03
  0.33333333  0.33333333  0.77777778  1.371742e-03
  0.33333333  0.33333333  0.88888889  1.371742e-03
  0.33333333  0.44444444  0.00000000  1.371742e-03
  0.33333333  0.44444444  0.11111111  1.371742e-03
  0.33333333  0.44444444  0.22222222  1.371742e-03
  0.33333333  0.44444444  0.33333333  1.371742e-03
  0.33333333  0.44444444  0.44444444  1.371742e-03
  0.33333333  0.44444444  0.55555556  1.371742e-03
  0.33333333  0.44444444  0.66666667  1.371742e-03
  0.33333333  0.44444444  0.77777778  1.371742e-03
  0.33333333  0.44444444  0.88888889  1.371742e-03
  0.33333333  0.55555556  0.00000000  1.371742e-03
  0.33333333  0.55555556  0.11111111  1.371742e-03
  0.33333333  0.55555556  0.22222222  1.371742e-03
  0.33333333  0.55555556  0.33333333  1.371742e-03
  0.33333333  0.55555556  0.44444444  1.371742e-03
  0.33333333  0.55555556  0.55555556  1.371742e-03
  0.33333333  0.55555556  0.66666667  1.371742e-03
  0.33333333  0.55555556  0.77777778  1.371742e-03
  0.33333333  0.55555556  0.88888889  1.371742e-03
  0.33333333  0.66666667  0.00000000  1.371742e-03
  0.33333333  0.66666667  0.11111111  1.371742e-03
  0.33333333  0.66666667  0.22222222  1.371742e-03
  0.33333333  0.66666667  0.33333333  1.371742e-03
  0.33333333  0.66666667  0.44444444  1.371742e-03
  0.33333333  0.66666667  0.55555556  1.371742e-03
  0.33333333  0.66666667  0.66666667  1.371742e-03
  0.33333333  0.66666667  0.77777778  1.371742e-03
  0.33333333  0.66666667  0.88888889  1.371742e-03
  0.33333333  0.77777778  0.00000000  1.371742e-03
  0.33333333  0.77777778  0.11111111  1.371742e-03
  0.33333333  0.77777778  0.22222222  1.371742e-03
  0.33333333  0.77777778  0.33333333  1.371742e-03
  0.33333333  0.77777778  0.44444444  1.371742e-03
  0.33333333  0.77777778  0.55555556  1.371742e-03
  0.33333333  0.77777778  0.66666667  1.371742e-03
  0.33333333  0.77777778  0.77777778  1.371742e-03
  0.33333333  0.77777778  0.88888889  1.371742e-03
  0.33333333  0.88888889  0.00000000  1.371742e-03
  0.33333333  0.88888889  0.11111111  1.371742e-03
  0.33333333  0.88888889  0.22222222  1.371742e-03
  0.33333333  0.88888889  0.33333333  1.371742e-03
  0.33333333  0.88888889  0.44444444  1.371742e-03
  0.33333333  0.88888889  0.55555556  1.371742e-03
  0.33333333  0.88888889  0.66666667  1.371742e-03
  0.33333333  0.88888889  0.77777778  1.371742e-03
  0.33333333  0.88888889  0.88888889  1.371742e-03
  0.44444444  0.00000000  0.00000000  1.371742e-03
  0.44444444  0.00000000  0.11111111  1.371742e-03
  0.44444444  0.00000000  0.22222222  1.371742e-03
  0.44444444  0.00000000  0.33333333  1.371742e-03
  0.44444444  0.00000000  0.44444444  1.371742e-03
  0.44444444  0.00000000  0.55555556  1.371742e-03
  0.44444444  0.00000000  0.66666667  1.371742e-03
  0.44444444  0.00000000  0.77777778  1.371742e-03
  0.44444444  0.00000000  0.88888889  1.371742e-03
  0.44444444  0.11111111  0.00000000  1.371742e-03
  0.44444444  0.11111111  0.11111111  1.371742e-03
  0.44444444  0.11111111  0.22222222  1.371742e-03
  0.44444444  0.11111111  0.33333333  1.371742e-03
  0.44444444  0.11111111  0.44444444  1.371742e-03
  0.44444444  0.11111111  0.55555556  1.371742e-03
  0.44444444  0.11111111  0.66666667  1.371742e-03
  0.44444444  0.11111111  0.77777778  1.371742e-03
  0.44444444  0.11111111  0.88888889  1.371742e-03
  0.44444444  0.22222222  0.00000000  1.371742e-03
  0.44444444  0.22222222  0.11111111  1.371742e-03
  0.44444444  0.22222222  0.22222222  1.371742e-03
  0.44444444  0.22222222  0.33333333  1.371742e-03
  0.44444444  0.22222222  0.44444444  1.371742e-03
  0.44444444  0.22222222  0.55555556  1.371742e-03
  0.44444444  0.22222222  0.66666667  1.371742e-03
  0.44444444  0.22222222  0.77777778  1.371742e-03
  0.44444444  0.22222222  0.88888889  1.371742e-03
  0.44444444  0.33333333  0.00000000  1.371742e-03
  0.44444444  0.33333333  0.11111111  1.371742e-03
  0.44444444  0.33333333  0.22222222  1.371742e-03
  0.44444444  0.33333333  0.33333333  1.371742e-03
  0.44444444  0.33333333  0.44444444  1.371742e-03
  0.44444444  0.33333333  0.55555556  1.371742e-03
  0.44444444  0.33333333  0.66666667  1.371742e-03
  0.44444444  0.33333333  0.77777778  1.371742e-03
  0.44444444  0.33333333  0.88888889  1.371742e-03
  0.44444444  0.44444444  0.00000000  1.371742e-03
  0.44444444  0.44444444  0.11111111  1.371742e-03
  0.44444444  0.44444444  0.22222222  1.371742e-03
  0.44444444  0.44444444  0.33333333  1.371742e-03
  0.44444444  0.44444444  0.44444444  1.371742e-03
  0.44444444  0.44444444  0.55555556  1.371742e-03
  0.44444444  0.44444444  0.66666667  1.371742e-03
  0.44444444  0.44444444  0.77777778  1.371742e-03
  0.44444444  0.44444444  0.88888889  1.371742e-03
  0.44444444  0.55555556  0.00000000  1.371742e-03
  0.44444444  0.55555556  0.11111111  1.371742e-03
  0.44444444  0.55555556  0.22222222  1.371742e-03
  0.44444444  0.55555556  0.33333333  1.371742e-03
  0.44444444  0.55555556  0.44444444  1.371742e-03
  0.44444444  0.55555556  0.55555556  1.371742e-03
  0.44444444  0.55555556  0.66666667  1.371742e-03
  0.44444444  0.55555556  0.77777778  1.371742e-03
  0.44444444  0.55555556  0.88888889  1.371742e-03
  0.44444444  0.66666667  0.00000000  1.371742e-03
  0.44444444  0.66666667  0.11111111  1.371742e-03
  0.44444444  0.66666667  0.22222222  1.371742e-03
  0.44444444  0.66666667  0.33333333  1.371742e-03
  0.44444444  0.66666667  0.44444444  1.371742e-03
  0.44444444  0.66666667  0.55555556  1.371742e-03
  0.44444444  0.66666667  0.66666667  1.371742e-03
  0.44444444  0.66666667  0.77777778  1.371742e-03
  0.44444444  0.66666667  0.88888889  1.371742e-03
  0.44444444  0.77777778  0.00000000  1.371742e-03
  0.44444444  0.77777778  0.11111111  1.371742e-03
  0.44444444  0.77777778  0.22222222  1.371742e-03
  0.44444444  0.77777778  0.33333333  1.371742e-03
  0.44444444  0.77777778  0.44444444  1.371742e-03
  0.44444444  0.77777778  0.55555556  1.371742e-03
  0.44444444  0.77777778  0.66666667  1.371742e-03
  0.44444444  0.77777778  0.77777778  1.371742e-03
  0.44444444  0.77777778  0.88888889  1.371742e-03
  0.44444444  0.88888889  0.00000000  1.371742e-03
  0.44444444  0.88888889  0.11111111  1.371742e-03
  0.44444444  0.88888889  0.22222222  1.371742e-03
  0.44444444  0.88888889  0.33333333  1.371742e-03
  0.44444444  0.88888889  0.44444444  1.371742e-03
  0.44444444  0.88888889  0.55555556  1.371742e-03
  0.44444444  0.88888889  0.66666667  1.371742e-03
  0.44444444  0.88888889  0.77777778  1.371742e-03
  0.44444444  0.88888889  0.88888889  1.371742e-03
  0.55555556  0.00000000  0.00000000  1.371742e-03
  0.55555556  0.00000000  0.11111111  1.371742e-03
  0.55555556  0.00000000  0.22222222  1.371742e-03
  0.55555556  0.00000000  0.33333333  1.371742e-03
  0.55555556  0.00000000  0.44444444  1.371742e-03
  0.55555556  0.00000000  0.55555556  1.371742e-03
  0.55555556  0.00000000  0.66666667  1.371742e-03
  0.55555556  0.00000000  0.77777778  1.371742e-03
  0.55555556  0.00000000  0.88888889  1.371742e-03
  0.55555556  0.11111111  0.00000000  1.371742e-03
  0.55555556  0.11111111  0.11111111  1.371742e-03
  0.55555556  0.11111111  0.22222222  1.371742e-03
  0.55555556  0.11111111  0.33333333  1.371742e-03
  0.55555556  0.11111111  0.44444444  1.371742e-03
  0.55555556  0.11111111  0.55555556  1.371742e-03
  0.55555556  0.11111111  0.66666667  1.371742e-03
  0.55555556  0.11111111  0.77777778  1.371742e-03
  0.55555556  0.11111111  0.88888889  1.371742e-03
  0.55555556  0.22222222  0.00000000  1.371742e-03
  0.55555556  0.22222222  0.11111111  1.371742e-03
  0.55555556  0.22222222  0.22222222  1.371742e-03
  0.55555556  0.22222222  0.33333333  1.371742e-03
  0.55555556  0.22222222  0.44444444  1.371742e-03
  0.55555556  0.22222222  0.55555556  1.371742e-03
  0.55555556  0.22222222  0.66666667  1.371742e-03
  0.55555556  0.22222222  0.77777778  1.371742e-03
  0.55555556  0.22222222  0.88888889  1.371742e-03
  0.55555556  0.33333333  0.00000000  1.371742e-03
  0.55555556  0.33333333  0.11111111  1.371742e-03
  0.55555556  0.33333333  0.22222222  1.371742e-03
  0.55555556  0.33333333  0.33333333  1.371742e-03
  0.55555556  0.33333333  0.44444444  1.371742e-03
  0.55555556  0.33333333  0.55555556  1.371742e-03
  0.55555556  0.33333333  0.66666667  1.371742e-03
  0.55555556  0.33333333  0.77777778  1.371742e-03
  0.55555556  0.33333333  0.88888889  1.371742e-03
  0.55555556  0.44444444  0.00000000  1.371742e-03
  0.55555556  0.44444444  0.11111111  1.371742e-03
  0.55555556  0.44444444  0.22222222  1.371742e-03
  0.55555556  0.44444444  0.33333333  1.371742e-03
  0.55555556  0.44444444  0.44444444  1.371742e-03
  0.55555556  0.44444444  0.55555556  1.371742e-03
  0.55555556  0.44444444  0.66666667  1.371742e-03
  0.55555556  0.44444444  0.77777778  1.371742e-03
  0.55555556  0.44444444  0.88888889  1.371742e-03
  0.55555556  0.55555556  0.00000000  1.371742e-03
  0.55555556  0.55555556  0.11111111  1.371742e-03
  0.55555556  0.55555556  0.22222222  1.371742e-03
  0.55555556  0.55555556  0.33333333  1.371742e-03
  0.55555556  0.55555556  0.44444444  1.371742e-03
  0.55555556  0.55555556  0.55555556  1.371742e-03
  0.55555556  0.55555556  0.66666667  1.371742e-03
  0.55555556  0.55555556  0.77777778  1.371742e-03
  0.55555556  0.55555556  0.88888889  1.371742e-03
  0.55555556  0.66666667  0.00000000  1.371742e-03
  0.55555556  0.66666667  0.11111111  1.371742e-03
  0.55555556  0.66666667  0.22222222  1.371742e-03
  0.55555556  0.66666667  0.33333333  1.371742e-03
  0.55555556  0.66666667  0.44444444  1.371742e-03
  0.55555556  0.66666667  0.55555556  1.371742e-03
  0.55555556  0.66666667  0.66666667  1.371742e-03
  0.55555556  0.66666667  0.77777778  1.371742e-03
  0.55555556  0.66666667  0.88888889  1.371742e-03
  0.55555556  0.77777778  0.00000000  1.371742e-03
  0.55555556  0.77777778  0.11111111  1.371742e-03
  0.55555556  0.77777778  0.22222222  1.371742e-03
  0.55555556  0.77777778  0.33333333  1.371742e-03
  0.55555556  0.77777778  0.44444444  1.371742e-03
  0.55555556  0.77777778  0.55555556  1.371742e-03
  0.55555556  0.77777778  0.66666667  1.371742e-03
  0.55555556  0.77777778  0.77777778  1.371742e-03
  0.55555556  0.77777778  0.88888889  1.371742e-03
  0.55555556  0.88888889  0.00000000  1.371742e-03
  0.55555556  0.88888889  0.11111111  1.371742e-03
  0.55555556  0.88888889  0.22222222  1.371742e-03
  0.55555556  0.88888889  0.33333333  1.371742e-03
  0.55555556  0.88888889  0.44444444  1.371742e-03
  0.55555556  0.88888889  0.55555556  1.371742e-03
  0.55555556  0.88888889  0.66666667  1.371742e-03
  0.55555556  0.88888889  0.77777778  1.371742e-03
  0.55555556  0.88888889  0.88888889  1.371742e-03
  0.66666667  0.00000000  0.00000000  1.371742e-03
  0.66666667  0.00000000  0.11111111  1.371742e-03
  0.66666667  0.00000000  0.22222222  1.371742e-03
  0.66666667  0.00000000  0.33333333  1.371742e-03
  0.66666667  0.00000000  0.44444444  1.371742e-03
  0.66666667  0.00000000  0.55555556  1.371742e-03
  0.66666667  0.00000000  0.66666667  1.371742e-03
  0.66666667  0.00000000  0.77777778  1.371742e-03
  0.66666667  0.00000000  0.88888889  1.371742e-03
  0.66666667  0.11111111  0.00000000  1.371742e-03
  0.66666667  0.11111111  0.11111111  1.371742e-03
  0.66666667  0.11111111  0.22222222  1.371742e-03
  0.66666667  0.11111111  0.33333333  1.371742e-03
  0.66666667  0.11111111  0.44444444  1.371742e-03
  0.66666667  0.11111111  0.55555556  1.371742e-03
  0.66666667  0.11111111  0.66666667  1.371742e-03
  0.66666667  0.11111111  0.77777778  1.371742e-03
  0.66666667  0.11111111  0.88888889  1.371742e-03
  0.66666667  0.22222222  0.00000000  1.371742e-03
  0.66666667  0.22222222  0.11111111  1.371742e-03
  0.66666667  0.22222222  0.22222222  1.371742e-03
  0.66666667  0.22222222  0.33333333  1.371742e-03
  0.66666667  0.22222222  0.44444444  1.371742e-03
  0.66666667  0.22222222  0.55555556  1.371742e-03
  0.66666667  0.22222222  0.66666667  1.371742e-03
  0.66666667  0.22222222  0.77777778  1.371742e-03
  0.66666667  0.22222222  0.88888889  1.371742e-03
  0.66666667  0.33333333  0.00000000  1.371742e-03
  0.66666667  0.33333333  0.11111111  1.371742e-03
  0.66666667  0.33333333  0.22222222  1.371742e-03
  0.66666667  0.33333333  0.33333333  1.371742e-03
  0.66666667  0.33333333  0.44444444  1.371742e-03
  0.66666667  0.33333333  0.55555556  1.371742e-03
  0.66666667  0.33333333  0.66666667  1.371742e-03
  0.66666667  0.33333333  0.77777778  1.371742e-03
  0.66666667  0.33333333  0.88888889  1.371742e-03
  0.66666667  0.44444444  0.00000000  1.371742e-03
  0.66666667  0.44444444  0.11111111  1.371742e-03
  0.66666667  0.44444444  0.22222222  1.371742e-03
  0.66666667  0.44444444  0.33333333  1.371742e-03
  0.66666667  0.44444444  0.44444444  1.371742e-03
  0.66666667  0.44444444  0.55555556  1.371742e-03
  0.66666667  0.44444444  0.66666667  1.371742e-03
  0.66666667  0.44444444  0.77777778  1.371742e-03
  0.66666667  0.44444444  0.88888889  1.371742e-03
  0.66666667  0.55555556  0.00000000  1.371742e-03
  0.66666667  0.55555556  0.11111111  1.371742e-03
  0.66666667  0.55555556  0.22222222  1.371742e-03
  0.66666667  0.55555556  0.33333333  1.371742e-03
  0.66666667  0.55555556  0.44444444  1.371742e-03
  0.66666667  0.55555556  0.55555556  1.371742e-03
  0.66666667  0.55555556  0.66666667  1.371742e-03
  0.66666667  0.55555556  0.77777778  1.371742e-03
  0.66666667  0.55555556  0.88888889  1.371742e-03
  0.66666667  0.66666667  0.00000000  1.371742e-03
  0.66666667  0.66666667  0.11111111  1.371742e-03
  0.66666667  0.66666667  0.22222222  1.371742e-03
  0.66666667  0.66666667  0.33333333  1.371742e-03
  0.66666667  0.66666667  0.44444444  1.371742e-03
  0.66666667  0.66666667  0.55555556  1.371742e-03
  0.66666667  0.66666667  0.66666667  1.371742e-03
  0.66666667  0.66666667  0.77777778  1.371742e-03
  0.66666667  0.66666667  0.88888889  1.371742e-03
  0.66666667  0.77777778  0.00000000  1.371742e-03
  0.66666667  0.77777778  0.11111111  1.371742e-03
  0.66666667  0.77777778  0.22222222  1.371742e-03
  0.66666667  0.77777778  0.33333333  1.371742e-03
  0.66666667  0.77777778  0.44444444  1.371742e-03
  0.66666667  0.77777778  0.55555556  1.371742e-03
  0.66666667  0.77777778  0.66666667  1.371742e-03
  0.66666667  0.77777778  0.77777778  1.371742e-03
  0.66666667  0.77777778  0.88888889  1.371742e-03
  0.66666667  0.88888889  0.00000000  1.371742e-03
  0.66666667  0.88888889  0.11111111  1.371742e-03
  0.66666667  0.88888889  0.22222222  1.371742e-03
  0.66666667  0.88888889  0.33333333  1.371742e-03
  0.66666667  0.88888889  0.44444444  1.371742e-03
  0.66666667  0.88888889  0.55555556  1.371742e-03
  0.66666667  0.88888889  0.66666667  1.371742e-03
  0.66666667  0.88888889  0.77777778  1.371742e-03