&INPUTPP
  outdir = './out/'
  prefix = 'si2'
  seedname = 'si2'
! spn_formatted = .true.
! write_unk = .true.
! reduce_unk = .true.
! wvfn_formatted = .true.
/
