&CONTROL
  calculation = 'bands'
  etot_conv_thr =   2.0000000000d-05
  forc_conv_thr =   1.0000000000d-04
  max_seconds =   4.1040000000d+04
  outdir = './out/'
  prefix = 'cu'
  pseudo_dir = '../../pseudo/'
  restart_mode = 'from_scratch'
  tprnfor = .true.
  tstress = .true.
  verbosity = 'high'
/
&SYSTEM
  degauss =   1.0000000000d-02
  ecutrho =   440.0
  ecutwfc =   55.0
  ibrav = 0
  nat = 1
  nbnd = 16
  noinv = .true.
  nosym = .true.
  ntyp = 1
  occupations = 'smearing'
  smearing = 'cold'
/
&ELECTRONS
  conv_thr =   4.0000000000d-10
  diago_full_acc = .true.
  electron_maxstep = 80
  mixing_beta =   4.0000000000d-01
  startingpot = 'file'
/
ATOMIC_SPECIES
Cu     55.85 cu_pbesol_v1.2.uspp.F.UPF
ATOMIC_POSITIONS crystal
Cu         0.0000000000       0.0000000000       0.0000000000
CELL_PARAMETERS angstrom
   -1.4430983361036    1.4430983361036    1.3630841209524
    1.4430983361036   -1.4430983361036    1.3630841209524
    1.4430983361036    1.4430983361036   -1.3630841209524
K_POINTS crystal
         743
    0.000000    0.000000    0.000000     1.000000
    0.000000    0.000000    0.005000     1.000000
    0.000000    0.000000    0.010000     1.000000
    0.000000    0.000000    0.015000     1.000000
    0.000000    0.000000    0.020000     1.000000
    0.000000    0.000000    0.025000     1.000000
    0.000000    0.000000    0.030000     1.000000
    0.000000    0.000000    0.035000     1.000000
    0.000000    0.000000    0.040000     1.000000
    0.000000    0.000000    0.045000     1.000000
    0.000000    0.000000    0.050000     1.000000
    0.000000    0.000000    0.055000     1.000000
    0.000000    0.000000    0.060000     1.000000
    0.000000    0.000000    0.065000     1.000000
    0.000000    0.000000    0.070000     1.000000
    0.000000    0.000000    0.075000     1.000000
    0.000000    0.000000    0.080000     1.000000
    0.000000    0.000000    0.085000     1.000000
    0.000000    0.000000    0.090000     1.000000
    0.000000    0.000000    0.095000     1.000000
    0.000000    0.000000    0.100000     1.000000
    0.000000    0.000000    0.105000     1.000000
    0.000000    0.000000    0.110000     1.000000
    0.000000    0.000000    0.115000     1.000000
    0.000000    0.000000    0.120000     1.000000
    0.000000    0.000000    0.125000     1.000000
    0.000000    0.000000    0.130000     1.000000
    0.000000    0.000000    0.135000     1.000000
    0.000000    0.000000    0.140000     1.000000
    0.000000    0.000000    0.145000     1.000000
    0.000000    0.000000    0.150000     1.000000
    0.000000    0.000000    0.155000     1.000000
    0.000000    0.000000    0.160000     1.000000
    0.000000    0.000000    0.165000     1.000000
    0.000000    0.000000    0.170000     1.000000
    0.000000    0.000000    0.175000     1.000000
    0.000000    0.000000    0.180000     1.000000
    0.000000    0.000000    0.185000     1.000000
    0.000000    0.000000    0.190000     1.000000
    0.000000    0.000000    0.195000     1.000000
    0.000000    0.000000    0.200000     1.000000
    0.000000    0.000000    0.205000     1.000000
    0.000000    0.000000    0.210000     1.000000
    0.000000    0.000000    0.215000     1.000000
    0.000000    0.000000    0.220000     1.000000
    0.000000    0.000000    0.225000     1.000000
    0.000000    0.000000    0.230000     1.000000
    0.000000    0.000000    0.235000     1.000000
    0.000000    0.000000    0.240000     1.000000
    0.000000    0.000000    0.245000     1.000000
    0.000000    0.000000    0.250000     1.000000
    0.000000    0.000000    0.255000     1.000000
    0.000000    0.000000    0.260000     1.000000
    0.000000    0.000000    0.265000     1.000000
    0.000000    0.000000    0.270000     1.000000
    0.000000    0.000000    0.275000     1.000000
    0.000000    0.000000    0.280000     1.000000
    0.000000    0.000000    0.285000     1.000000
    0.000000    0.000000    0.290000     1.000000
    0.000000    0.000000    0.295000     1.000000
    0.000000    0.000000    0.300000     1.000000
    0.000000    0.000000    0.305000     1.000000
    0.000000    0.000000    0.310000     1.000000
    0.000000    0.000000    0.315000     1.000000
    0.000000    0.000000    0.320000     1.000000
    0.000000    0.000000    0.325000     1.000000
    0.000000    0.000000    0.330000     1.000000
    0.000000    0.000000    0.335000     1.000000
    0.000000    0.000000    0.340000     1.000000
    0.000000    0.000000    0.345000     1.000000
    0.000000    0.000000    0.350000     1.000000
    0.000000    0.000000    0.355000     1.000000
    0.000000    0.000000    0.360000     1.000000
    0.000000    0.000000    0.365000     1.000000
    0.000000    0.000000    0.370000     1.000000
    0.000000    0.000000    0.375000     1.000000
    0.000000    0.000000    0.380000     1.000000
    0.000000    0.000000    0.385000     1.000000
    0.000000    0.000000    0.390000     1.000000
    0.000000    0.000000    0.395000     1.000000
    0.000000    0.000000    0.400000     1.000000
    0.000000    0.000000    0.405000     1.000000
    0.000000    0.000000    0.410000     1.000000
    0.000000    0.000000    0.415000     1.000000
    0.000000    0.000000    0.420000     1.000000
    0.000000    0.000000    0.425000     1.000000
    0.000000    0.000000    0.430000     1.000000
    0.000000    0.000000    0.435000     1.000000
    0.000000    0.000000    0.440000     1.000000
    0.000000    0.000000    0.445000     1.000000
    0.000000    0.000000    0.450000     1.000000
    0.000000    0.000000    0.455000     1.000000
    0.000000    0.000000    0.460000     1.000000
    0.000000    0.000000    0.465000     1.000000
    0.000000    0.000000    0.470000     1.000000
    0.000000    0.000000    0.475000     1.000000
    0.000000    0.000000    0.480000     1.000000
    0.000000    0.000000    0.485000     1.000000
    0.000000    0.000000    0.490000     1.000000
    0.000000    0.000000    0.495000     1.000000
    0.000000    0.000000    0.500000     1.000000
   -0.005000    0.005000    0.500000     1.000000
   -0.010000    0.010000    0.500000     1.000000
   -0.015000    0.015000    0.500000     1.000000
   -0.020000    0.020000    0.500000     1.000000
   -0.025000    0.025000    0.500000     1.000000
   -0.030000    0.030000    0.500000     1.000000
   -0.035000    0.035000    0.500000     1.000000
   -0.040000    0.040000    0.500000     1.000000
   -0.045000    0.045000    0.500000     1.000000
   -0.050000    0.050000    0.500000     1.000000
   -0.055000    0.055000    0.500000     1.000000
   -0.060000    0.060000    0.500000     1.000000
   -0.065000    0.065000    0.500000     1.000000
   -0.070000    0.070000    0.500000     1.000000
   -0.075000    0.075000    0.500000     1.000000
   -0.080000    0.080000    0.500000     1.000000
   -0.085000    0.085000    0.500000     1.000000
   -0.090000    0.090000    0.500000     1.000000
   -0.095000    0.095000    0.500000     1.000000
   -0.100000    0.100000    0.500000     1.000000
   -0.105000    0.105000    0.500000     1.000000
   -0.110000    0.110000    0.500000     1.000000
   -0.115000    0.115000    0.500000     1.000000
   -0.120000    0.120000    0.500000     1.000000
   -0.125000    0.125000    0.500000     1.000000
   -0.130000    0.130000    0.500000     1.000000
   -0.135000    0.135000    0.500000     1.000000
   -0.140000    0.140000    0.500000     1.000000
   -0.145000    0.145000    0.500000     1.000000
   -0.150000    0.150000    0.500000     1.000000
   -0.155000    0.155000    0.500000     1.000000
   -0.160000    0.160000    0.500000     1.000000
   -0.165000    0.165000    0.500000     1.000000
   -0.170000    0.170000    0.500000     1.000000
   -0.175000    0.175000    0.500000     1.000000
   -0.180000    0.180000    0.500000     1.000000
   -0.185000    0.185000    0.500000     1.000000
   -0.190000    0.190000    0.500000     1.000000
   -0.195000    0.195000    0.500000     1.000000
   -0.200000    0.200000    0.500000     1.000000
   -0.205000    0.205000    0.500000     1.000000
   -0.210000    0.210000    0.500000     1.000000
   -0.215000    0.215000    0.500000     1.000000
   -0.220000    0.220000    0.500000     1.000000
   -0.225000    0.225000    0.500000     1.000000
   -0.230000    0.230000    0.500000     1.000000
   -0.235000    0.235000    0.500000     1.000000
   -0.240000    0.240000    0.500000     1.000000
   -0.245000    0.245000    0.500000     1.000000
   -0.250000    0.250000    0.500000     1.000000
   -0.255000    0.255000    0.500000     1.000000
   -0.260000    0.260000    0.500000     1.000000
   -0.265000    0.265000    0.500000     1.000000
   -0.270000    0.270000    0.500000     1.000000
   -0.275000    0.275000    0.500000     1.000000
   -0.280000    0.280000    0.500000     1.000000
   -0.285000    0.285000    0.500000     1.000000
   -0.290000    0.290000    0.500000     1.000000
   -0.295000    0.295000    0.500000     1.000000
   -0.300000    0.300000    0.500000     1.000000
   -0.305000    0.305000    0.500000     1.000000
   -0.310000    0.310000    0.500000     1.000000
   -0.315000    0.315000    0.500000     1.000000
   -0.320000    0.320000    0.500000     1.000000
   -0.325000    0.325000    0.500000     1.000000
   -0.330000    0.330000    0.500000     1.000000
   -0.335000    0.335000    0.500000     1.000000
   -0.340000    0.340000    0.500000     1.000000
   -0.345000    0.345000    0.500000     1.000000
   -0.350000    0.350000    0.500000     1.000000
   -0.355000    0.355000    0.500000     1.000000
   -0.360000    0.360000    0.500000     1.000000
   -0.365000    0.365000    0.500000     1.000000
   -0.370000    0.370000    0.500000     1.000000
   -0.375000    0.375000    0.500000     1.000000
   -0.380000    0.380000    0.500000     1.000000
   -0.385000    0.385000    0.500000     1.000000
   -0.390000    0.390000    0.500000     1.000000
   -0.395000    0.395000    0.500000     1.000000
   -0.400000    0.400000    0.500000     1.000000
   -0.405000    0.405000    0.500000     1.000000
   -0.410000    0.410000    0.500000     1.000000
   -0.415000    0.415000    0.500000     1.000000
   -0.420000    0.420000    0.500000     1.000000
   -0.425000    0.425000    0.500000     1.000000
   -0.430000    0.430000    0.500000     1.000000
   -0.435000    0.435000    0.500000     1.000000
   -0.440000    0.440000    0.500000     1.000000
   -0.445000    0.445000    0.500000     1.000000
   -0.450000    0.450000    0.500000     1.000000
   -0.455000    0.455000    0.500000     1.000000
   -0.460000    0.460000    0.500000     1.000000
   -0.465000    0.465000    0.500000     1.000000
   -0.470000    0.470000    0.500000     1.000000
   -0.475000    0.475000    0.500000     1.000000
   -0.480000    0.480000    0.500000     1.000000
   -0.485000    0.485000    0.500000     1.000000
   -0.490000    0.490000    0.500000     1.000000
   -0.495000    0.495000    0.500000     1.000000
   -0.500000    0.500000    0.500000     1.000000
   -0.496454    0.496454    0.496454     1.000000
   -0.492908    0.492908    0.492908     1.000000
   -0.489362    0.489362    0.489362     1.000000
   -0.485816    0.485816    0.485816     1.000000
   -0.482270    0.482270    0.482270     1.000000
   -0.478723    0.478723    0.478723     1.000000
   -0.475177    0.475177    0.475177     1.000000
   -0.471631    0.471631    0.471631     1.000000
   -0.468085    0.468085    0.468085     1.000000
   -0.464539    0.464539    0.464539     1.000000
   -0.460993    0.460993    0.460993     1.000000
   -0.457447    0.457447    0.457447     1.000000
   -0.453901    0.453901    0.453901     1.000000
   -0.450355    0.450355    0.450355     1.000000
   -0.446809    0.446809    0.446809     1.000000
   -0.443262    0.443262    0.443262     1.000000
   -0.439716    0.439716    0.439716     1.000000
   -0.436170    0.436170    0.436170     1.000000
   -0.432624    0.432624    0.432624     1.000000
   -0.429078    0.429078    0.429078     1.000000
   -0.425532    0.425532    0.425532     1.000000
   -0.421986    0.421986    0.421986     1.000000
   -0.418440    0.418440    0.418440     1.000000
   -0.414894    0.414894    0.414894     1.000000
   -0.411348    0.411348    0.411348     1.000000
   -0.407801    0.407801    0.407801     1.000000
   -0.404255    0.404255    0.404255     1.000000
   -0.400709    0.400709    0.400709     1.000000
   -0.397163    0.397163    0.397163     1.000000
   -0.393617    0.393617    0.393617     1.000000
   -0.390071    0.390071    0.390071     1.000000
   -0.386525    0.386525    0.386525     1.000000
   -0.382979    0.382979    0.382979     1.000000
   -0.379433    0.379433    0.379433     1.000000
   -0.375887    0.375887    0.375887     1.000000
   -0.372340    0.372340    0.372340     1.000000
   -0.368794    0.368794    0.368794     1.000000
   -0.365248    0.365248    0.365248     1.000000
   -0.361702    0.361702    0.361702     1.000000
   -0.358156    0.358156    0.358156     1.000000
   -0.354610    0.354610    0.354610     1.000000
   -0.351064    0.351064    0.351064     1.000000
   -0.347518    0.347518    0.347518     1.000000
   -0.343972    0.343972    0.343972     1.000000
   -0.340426    0.340426    0.340426     1.000000
   -0.336879    0.336879    0.336879     1.000000
   -0.333333    0.333333    0.333333     1.000000
   -0.329787    0.329787    0.329787     1.000000
   -0.326241    0.326241    0.326241     1.000000
   -0.322695    0.322695    0.322695     1.000000
   -0.319149    0.319149    0.319149     1.000000
   -0.315603    0.315603    0.315603     1.000000
   -0.312057    0.312057    0.312057     1.000000
   -0.308511    0.308511    0.308511     1.000000
   -0.304965    0.304965    0.304965     1.000000
   -0.301418    0.301418    0.301418     1.000000
   -0.297872    0.297872    0.297872     1.000000
   -0.294326    0.294326    0.294326     1.000000
   -0.290780    0.290780    0.290780     1.000000
   -0.287234    0.287234    0.287234     1.000000
   -0.283688    0.283688    0.283688     1.000000
   -0.280142    0.280142    0.280142     1.000000
   -0.276596    0.276596    0.276596     1.000000
   -0.273050    0.273050    0.273050     1.000000
   -0.269504    0.269504    0.269504     1.000000
   -0.265957    0.265957    0.265957     1.000000
   -0.262411    0.262411    0.262411     1.000000
   -0.258865    0.258865    0.258865     1.000000
   -0.255319    0.255319    0.255319     1.000000
   -0.251773    0.251773    0.251773     1.000000
   -0.248227    0.248227    0.248227     1.000000
   -0.244681    0.244681    0.244681     1.000000
   -0.241135    0.241135    0.241135     1.000000
   -0.237589    0.237589    0.237589     1.000000
   -0.234043    0.234043    0.234043     1.000000
   -0.230496    0.230496    0.230496     1.000000
   -0.226950    0.226950    0.226950     1.000000
   -0.223404    0.223404    0.223404     1.000000
   -0.219858    0.219858    0.219858     1.000000
   -0.216312    0.216312    0.216312     1.000000
   -0.212766    0.212766    0.212766     1.000000
   -0.209220    0.209220    0.209220     1.000000
   -0.205674    0.205674    0.205674     1.000000
   -0.202128    0.202128    0.202128     1.000000
   -0.198582    0.198582    0.198582     1.000000
   -0.195035    0.195035    0.195035     1.000000
   -0.191489    0.191489    0.191489     1.000000
   -0.187943    0.187943    0.187943     1.000000
   -0.184397    0.184397    0.184397     1.000000
   -0.180851    0.180851    0.180851     1.000000
   -0.177305    0.177305    0.177305     1.000000
   -0.173759    0.173759    0.173759     1.000000
   -0.170213    0.170213    0.170213     1.000000
   -0.166667    0.166667    0.166667     1.000000
   -0.163121    0.163121    0.163121     1.000000
   -0.159574    0.159574    0.159574     1.000000
   -0.156028    0.156028    0.156028     1.000000
   -0.152482    0.152482    0.152482     1.000000
   -0.148936    0.148936    0.148936     1.000000
   -0.145390    0.145390    0.145390     1.000000
   -0.141844    0.141844    0.141844     1.000000
   -0.138298    0.138298    0.138298     1.000000
   -0.134752    0.134752    0.134752     1.000000
   -0.131206    0.131206    0.131206     1.000000
   -0.127660    0.127660    0.127660     1.000000
   -0.124113    0.124113    0.124113     1.000000
   -0.120567    0.120567    0.120567     1.000000
   -0.117021    0.117021    0.117021     1.000000
   -0.113475    0.113475    0.113475     1.000000
   -0.109929    0.109929    0.109929     1.000000
   -0.106383    0.106383    0.106383     1.000000
   -0.102837    0.102837    0.102837     1.000000
   -0.099291    0.099291    0.099291     1.000000
   -0.095745    0.095745    0.095745     1.000000
   -0.092199    0.092199    0.092199     1.000000
   -0.088652    0.088652    0.088652     1.000000
   -0.085106    0.085106    0.085106     1.000000
   -0.081560    0.081560    0.081560     1.000000
   -0.078014    0.078014    0.078014     1.000000
   -0.074468    0.074468    0.074468     1.000000
   -0.070922    0.070922    0.070922     1.000000
   -0.067376    0.067376    0.067376     1.000000
   -0.063830    0.063830    0.063830     1.000000
   -0.060284    0.060284    0.060284     1.000000
   -0.056738    0.056738    0.056738     1.000000
   -0.053191    0.053191    0.053191     1.000000
   -0.049645    0.049645    0.049645     1.000000
   -0.046099    0.046099    0.046099     1.000000
   -0.042553    0.042553    0.042553     1.000000
   -0.039007    0.039007    0.039007     1.000000
   -0.035461    0.035461    0.035461     1.000000
   -0.031915    0.031915    0.031915     1.000000
   -0.028369    0.028369    0.028369     1.000000
   -0.024823    0.024823    0.024823     1.000000
   -0.021277    0.021277    0.021277     1.000000
   -0.017730    0.017730    0.017730     1.000000
   -0.014184    0.014184    0.014184     1.000000
   -0.010638    0.010638    0.010638     1.000000
   -0.007092    0.007092    0.007092     1.000000
   -0.003546    0.003546    0.003546     1.000000
    0.000000    0.000000    0.000000     1.000000
    0.003331    0.003331   -0.003331     1.000000
    0.006663    0.006663   -0.006663     1.000000
    0.009994    0.009994   -0.009994     1.000000
    0.013325    0.013325   -0.013325     1.000000
    0.016657    0.016657   -0.016657     1.000000
    0.019988    0.019988   -0.019988     1.000000
    0.023319    0.023319   -0.023319     1.000000
    0.026650    0.026650   -0.026650     1.000000
    0.029982    0.029982   -0.029982     1.000000
    0.033313    0.033313   -0.033313     1.000000
    0.036644    0.036644   -0.036644     1.000000
    0.039976    0.039976   -0.039976     1.000000
    0.043307    0.043307   -0.043307     1.000000
    0.046638    0.046638   -0.046638     1.000000
    0.049970    0.049970   -0.049970     1.000000
    0.053301    0.053301   -0.053301     1.000000
    0.056632    0.056632   -0.056632     1.000000
    0.059964    0.059964   -0.059964     1.000000
    0.063295    0.063295   -0.063295     1.000000
    0.066626    0.066626   -0.066626     1.000000
    0.069957    0.069957   -0.069957     1.000000
    0.073289    0.073289   -0.073289     1.000000
    0.076620    0.076620   -0.076620     1.000000
    0.079951    0.079951   -0.079951     1.000000
    0.083283    0.083283   -0.083283     1.000000
    0.086614    0.086614   -0.086614     1.000000
    0.089945    0.089945   -0.089945     1.000000
    0.093277    0.093277   -0.093277     1.000000
    0.096608    0.096608   -0.096608     1.000000
    0.099939    0.099939   -0.099939     1.000000
    0.103270    0.103270   -0.103270     1.000000
    0.106602    0.106602   -0.106602     1.000000
    0.109933    0.109933   -0.109933     1.000000
    0.113264    0.113264   -0.113264     1.000000
    0.116596    0.116596   -0.116596     1.000000
    0.119927    0.119927   -0.119927     1.000000
    0.123258    0.123258   -0.123258     1.000000
    0.126590    0.126590   -0.126590     1.000000
    0.129921    0.129921   -0.129921     1.000000
    0.133252    0.133252   -0.133252     1.000000
    0.136584    0.136584   -0.136584     1.000000
    0.139915    0.139915   -0.139915     1.000000
    0.143246    0.143246   -0.143246     1.000000
    0.146577    0.146577   -0.146577     1.000000
    0.149909    0.149909   -0.149909     1.000000
    0.153240    0.153240   -0.153240     1.000000
    0.156571    0.156571   -0.156571     1.000000
    0.159903    0.159903   -0.159903     1.000000
    0.163234    0.163234   -0.163234     1.000000
    0.166565    0.166565   -0.166565     1.000000
    0.169897    0.169897   -0.169897     1.000000
    0.173228    0.173228   -0.173228     1.000000
    0.176559    0.176559   -0.176559     1.000000
    0.179891    0.179891   -0.179891     1.000000
    0.183222    0.183222   -0.183222     1.000000
    0.186553    0.186553   -0.186553     1.000000
    0.189884    0.189884   -0.189884     1.000000
    0.193216    0.193216   -0.193216     1.000000
    0.196547    0.196547   -0.196547     1.000000
    0.199878    0.199878   -0.199878     1.000000
    0.203210    0.203210   -0.203210     1.000000
    0.206541    0.206541   -0.206541     1.000000
    0.209872    0.209872   -0.209872     1.000000
    0.213204    0.213204   -0.213204     1.000000
    0.216535    0.216535   -0.216535     1.000000
    0.219866    0.219866   -0.219866     1.000000
    0.223198    0.223198   -0.223198     1.000000
    0.226529    0.226529   -0.226529     1.000000
    0.229860    0.229860   -0.229860     1.000000
    0.233191    0.233191   -0.233191     1.000000
    0.236523    0.236523   -0.236523     1.000000
    0.239854    0.239854   -0.239854     1.000000
    0.243185    0.243185   -0.243185     1.000000
    0.246517    0.246517   -0.246517     1.000000
    0.249848    0.249848   -0.249848     1.000000
    0.253179    0.253179   -0.253179     1.000000
    0.256511    0.256511   -0.256511     1.000000
    0.259842    0.259842   -0.259842     1.000000
    0.263173    0.263173   -0.263173     1.000000
    0.266505    0.266505   -0.266505     1.000000
    0.269836    0.269836   -0.269836     1.000000
    0.273167    0.273167   -0.273167     1.000000
    0.276498    0.276498   -0.276498     1.000000
    0.279830    0.279830   -0.279830     1.000000
    0.283161    0.283161   -0.283161     1.000000
    0.286492    0.286492   -0.286492     1.000000
    0.289824    0.289824   -0.289824     1.000000
    0.293155    0.293155   -0.293155     1.000000
    0.296486    0.296486   -0.296486     1.000000
    0.299818    0.299818   -0.299818     1.000000
    0.303149    0.303149   -0.303149     1.000000
    0.306480    0.306480   -0.306480     1.000000
    0.309811    0.309811   -0.309811     1.000000
    0.313143    0.313143   -0.313143     1.000000
    0.316474    0.316474   -0.316474     1.000000
    0.319805    0.319805   -0.319805     1.000000
    0.323137    0.323137   -0.323137     1.000000
    0.326468    0.326468   -0.326468     1.000000
    0.329799    0.329799   -0.329799     1.000000
    0.333131    0.333131   -0.333131     1.000000
    0.336462    0.336462   -0.336462     1.000000
    0.339793    0.339793   -0.339793     1.000000
    0.343125    0.343125   -0.343125     1.000000
    0.346456    0.346456   -0.346456     1.000000
    0.349787    0.349787   -0.349787     1.000000
    0.353118    0.353118   -0.353118     1.000000
    0.356450    0.356450   -0.356450     1.000000
    0.359781    0.359781   -0.359781     1.000000
    0.363112    0.363112   -0.363112     1.000000
    0.366444    0.366444   -0.366444     1.000000
    0.369775    0.369775   -0.369775     1.000000
    0.373106    0.373106   -0.373106     1.000000
    0.376438    0.376438   -0.376438     1.000000
    0.379769    0.379769   -0.379769     1.000000
    0.383100    0.383100   -0.383100     1.000000
    0.386432    0.386432   -0.386432     1.000000
    0.389763    0.389763   -0.389763     1.000000
    0.393094    0.393094   -0.393094     1.000000
    0.396425    0.396425   -0.396425     1.000000
    0.399757    0.399757   -0.399757     1.000000
    0.403088    0.403088   -0.403088     1.000000
    0.406419    0.406419   -0.406419     1.000000
    0.409751    0.409751   -0.409751     1.000000
    0.413082    0.413082   -0.413082     1.000000
    0.416413    0.416413   -0.416413     1.000000
    0.419745    0.419745   -0.419745     1.000000
    0.423076    0.423076   -0.423076     1.000000
    0.426407    0.426407   -0.426407     1.000000
    0.429739    0.429739   -0.429739     1.000000
    0.433070    0.433070   -0.433070     1.000000
    0.436401    0.436401   -0.436401     1.000000
    0.439732    0.439732   -0.439732     1.000000
    0.443064    0.443064   -0.443064     1.000000
    0.446395    0.446395   -0.446395     1.000000
    0.449726    0.449726   -0.449726     1.000000
    0.453058    0.453058   -0.453058     1.000000
    0.456389    0.456389   -0.456389     1.000000
    0.459720    0.459720   -0.459720     1.000000
    0.463052    0.463052   -0.463052     1.000000
    0.466383    0.466383   -0.466383     1.000000
    0.469714    0.469714   -0.469714     1.000000
    0.473046    0.473046   -0.473046     1.000000
   -0.473046    0.526954    0.473046     1.000000
   -0.476415    0.523585    0.476415     1.000000
   -0.479784    0.520216    0.479784     1.000000
   -0.483153    0.516847    0.483153     1.000000
   -0.486523    0.513477    0.486523     1.000000
   -0.489892    0.510108    0.489892     1.000000
   -0.493261    0.506739    0.493261     1.000000
   -0.496631    0.503369    0.496631     1.000000
   -0.500000    0.500000    0.500000     1.000000
    0.000000    0.000000    0.500000     1.000000
    0.003333    0.003333    0.496667     1.000000
    0.006667    0.006667    0.493333     1.000000
    0.010000    0.010000    0.490000     1.000000
    0.013333    0.013333    0.486667     1.000000
    0.016667    0.016667    0.483333     1.000000
    0.020000    0.020000    0.480000     1.000000
    0.023333    0.023333    0.476667     1.000000
    0.026667    0.026667    0.473333     1.000000
    0.030000    0.030000    0.470000     1.000000
    0.033333    0.033333    0.466667     1.000000
    0.036667    0.036667    0.463333     1.000000
    0.040000    0.040000    0.460000     1.000000
    0.043333    0.043333    0.456667     1.000000
    0.046667    0.046667    0.453333     1.000000
    0.050000    0.050000    0.450000     1.000000
    0.053333    0.053333    0.446667     1.000000
    0.056667    0.056667    0.443333     1.000000
    0.060000    0.060000    0.440000     1.000000
    0.063333    0.063333    0.436667     1.000000
    0.066667    0.066667    0.433333     1.000000
    0.070000    0.070000    0.430000     1.000000
    0.073333    0.073333    0.426667     1.000000
    0.076667    0.076667    0.423333     1.000000
    0.080000    0.080000    0.420000     1.000000
    0.083333    0.083333    0.416667     1.000000
    0.086667    0.086667    0.413333     1.000000
    0.090000    0.090000    0.410000     1.000000
    0.093333    0.093333    0.406667     1.000000
    0.096667    0.096667    0.403333     1.000000
    0.100000    0.100000    0.400000     1.000000
    0.103333    0.103333    0.396667     1.000000
    0.106667    0.106667    0.393333     1.000000
    0.110000    0.110000    0.390000     1.000000
    0.113333    0.113333    0.386667     1.000000
    0.116667    0.116667    0.383333     1.000000
    0.120000    0.120000    0.380000     1.000000
    0.123333    0.123333    0.376667     1.000000
    0.126667    0.126667    0.373333     1.000000
    0.130000    0.130000    0.370000     1.000000
    0.133333    0.133333    0.366667     1.000000
    0.136667    0.136667    0.363333     1.000000
    0.140000    0.140000    0.360000     1.000000
    0.143333    0.143333    0.356667     1.000000
    0.146667    0.146667    0.353333     1.000000
    0.150000    0.150000    0.350000     1.000000
    0.153333    0.153333    0.346667     1.000000
    0.156667    0.156667    0.343333     1.000000
    0.160000    0.160000    0.340000     1.000000
    0.163333    0.163333    0.336667     1.000000
    0.166667    0.166667    0.333333     1.000000
    0.170000    0.170000    0.330000     1.000000
    0.173333    0.173333    0.326667     1.000000
    0.176667    0.176667    0.323333     1.000000
    0.180000    0.180000    0.320000     1.000000
    0.183333    0.183333    0.316667     1.000000
    0.186667    0.186667    0.313333     1.000000
    0.190000    0.190000    0.310000     1.000000
    0.193333    0.193333    0.306667     1.000000
    0.196667    0.196667    0.303333     1.000000
    0.200000    0.200000    0.300000     1.000000
    0.203333    0.203333    0.296667     1.000000
    0.206667    0.206667    0.293333     1.000000
    0.210000    0.210000    0.290000     1.000000
    0.213333    0.213333    0.286667     1.000000
    0.216667    0.216667    0.283333     1.000000
    0.220000    0.220000    0.280000     1.000000
    0.223333    0.223333    0.276667     1.000000
    0.226667    0.226667    0.273333     1.000000
    0.230000    0.230000    0.270000     1.000000
    0.233333    0.233333    0.266667     1.000000
    0.236667    0.236667    0.263333     1.000000
    0.240000    0.240000    0.260000     1.000000
    0.243333    0.243333    0.256667     1.000000
    0.246667    0.246667    0.253333     1.000000
    0.250000    0.250000    0.250000     1.000000
    0.246479    0.253521    0.246479     1.000000
    0.242958    0.257042    0.242958     1.000000
    0.239437    0.260563    0.239437     1.000000
    0.235915    0.264085    0.235915     1.000000
    0.232394    0.267606    0.232394     1.000000
    0.228873    0.271127    0.228873     1.000000
    0.225352    0.274648    0.225352     1.000000
    0.221831    0.278169    0.221831     1.000000
    0.218310    0.281690    0.218310     1.000000
    0.214789    0.285211    0.214789     1.000000