&INPUTPP
  outdir = './out/'
  prefix = 'mos2'
  reduce_unk = .true.
  seedname = 'mos2'
  spn_formatted = .true.
  write_unk = .true.
  wvfn_formatted = .true.
/
