# restart = plot
# write_tb = true
# use_ws_distance = .false.
# write_u_matrices = true

bands_plot = .true.
conv_tol =   2.0000000000d-10
conv_window = 3
dis_conv_tol =   2.0000000000d-10
dis_froz_max =   10
dis_num_iter = 4000
fermi_energy =   6.5283
mp_grid = 9 9 9
num_bands = 16
num_cg_steps = 200
num_iter = 4000
num_wann = 8
spn_formatted = .true.
# wannier_plot = .true.
# wannier_plot_format = cube
# wannier_plot_supercell = 3
# wvfn_formatted = .true.

begin atoms_frac
Si         0.0000000000       0.0000000000       0.0000000000
Si         0.2500000000       0.2500000000       0.2500000000
end atoms_frac

begin projections
Si:s;p
end projections

begin unit_cell_cart
ang
      0.0000000000       2.7152650000       2.7152650000
      2.7152650000       0.0000000000       2.7152650000
      2.7152650000       2.7152650000       0.0000000000
end unit_cell_cart

begin kpoint_path
G  0.000 0.000 0.000    X  0.500 0.000 0.500
X  0.500 0.000 0.500    U  0.625 0.250 0.625
U  0.625 0.250 0.625    K  0.375 0.375 0.750
K  0.375 0.375 0.750    G  0.000 0.000 0.000
G  0.000 0.000 0.000    L  0.500 0.500 0.500
L  0.500 0.500 0.500    W  0.500 0.250 0.750
W  0.500 0.250 0.750    X  0.500 0.000 0.500
end kpoint_path

begin kpoints
  0.00000000  0.00000000  0.00000000  1.371742e-03
  0.00000000  0.00000000  0.11111111  1.371742e-03
  0.00000000  0.00000000  0.22222222  1.371742e-03
  0.00000000  0.00000000  0.33333333  1.371742e-03
  0.00000000  0.00000000  0.44444444  1.371742e-03
  0.00000000  0.00000000  0.55555556  1.371742e-03
  0.00000000  0.00000000  0.66666667  1.371742e-03
  0.00000000  0.00000000  0.77777778  1.371742e-03
  0.00000000  0.00000000  0.88888889  1.371742e-03
  0.00000000  0.11111111  0.00000000  1.371742e-03
  0.00000000  0.11111111  0.11111111  1.371742e-03
  0.00000000  0.11111111  0.22222222  1.371742e-03
  0.00000000  0.11111111  0.33333333  1.371742e-03
  0.00000000  0.11111111  0.44444444  1.371742e-03
  0.00000000  0.11111111  0.55555556  1.371742e-03
  0.00000000  0.11111111  0.66666667  1.371742e-03
  0.00000000  0.11111111  0.77777778  1.371742e-03
  0.00000000  0.11111111  0.88888889  1.371742e-03
  0.00000000  0.22222222  0.00000000  1.371742e-03
  0.00000000  0.22222222  0.11111111  1.371742e-03
  0.00000000  0.22222222  0.22222222  1.371742e-03
  0.00000000  0.22222222  0.33333333  1.371742e-03
  0.00000000  0.22222222  0.44444444  1.371742e-03
  0.00000000  0.22222222  0.55555556  1.371742e-03
  0.00000000  0.22222222  0.66666667  1.371742e-03
  0.00000000  0.22222222  0.77777778  1.371742e-03
  0.00000000  0.22222222  0.88888889  1.371742e-03
  0.00000000  0.33333333  0.00000000  1.371742e-03
  0.00000000  0.33333333  0.11111111  1.371742e-03
  0.00000000  0.33333333  0.22222222  1.371742e-03
  0.00000000  0.33333333  0.33333333  1.371742e-03
  0.00000000  0.33333333  0.44444444  1.371742e-03
  0.00000000  0.33333333  0.55555556  1.371742e-03
  0.00000000  0.33333333  0.66666667  1.371742e-03
  0.00000000  0.33333333  0.77777778  1.371742e-03
  0.00000000  0.33333333  0.88888889  1.371742e-03
  0.00000000  0.44444444  0.00000000  1.371742e-03
  0.00000000  0.44444444  0.11111111  1.371742e-03
  0.00000000  0.44444444  0.22222222  1.371742e-03
  0.00000000  0.44444444  0.33333333  1.371742e-03
  0.00000000  0.44444444  0.44444444  1.371742e-03
  0.00000000  0.44444444  0.55555556  1.371742e-03
  0.00000000  0.44444444  0.66666667  1.371742e-03
  0.00000000  0.44444444  0.77777778  1.371742e-03
  0.00000000  0.44444444  0.88888889  1.371742e-03
  0.00000000  0.55555556  0.00000000  1.371742e-03
  0.00000000  0.55555556  0.11111111  1.371742e-03
  0.00000000  0.55555556  0.22222222  1.371742e-03
  0.00000000  0.55555556  0.33333333  1.371742e-03
  0.00000000  0.55555556  0.44444444  1.371742e-03
  0.00000000  0.55555556  0.55555556  1.371742e-03
  0.00000000  0.55555556  0.66666667  1.371742e-03
  0.00000000  0.55555556  0.77777778  1.371742e-03
  0.00000000  0.55555556  0.88888889  1.371742e-03
  0.00000000  0.66666667  0.00000000  1.371742e-03
  0.00000000  0.66666667  0.11111111  1.371742e-03
  0.00000000  0.66666667  0.22222222  1.371742e-03
  0.00000000  0.66666667  0.33333333  1.371742e-03
  0.00000000  0.66666667  0.44444444  1.371742e-03
  0.00000000  0.66666667  0.55555556  1.371742e-03
  0.00000000  0.66666667  0.66666667  1.371742e-03
  0.00000000  0.66666667  0.77777778  1.371742e-03
  0.00000000  0.66666667  0.88888889  1.371742e-03
  0.00000000  0.77777778  0.00000000  1.371742e-03
  0.00000000  0.77777778  0.11111111  1.371742e-03
  0.00000000  0.77777778  0.22222222  1.371742e-03
  0.00000000  0.77777778  0.33333333  1.371742e-03
  0.00000000  0.77777778  0.44444444  1.371742e-03
  0.00000000  0.77777778  0.55555556  1.371742e-03
  0.00000000  0.77777778  0.66666667  1.371742e-03
  0.00000000  0.77777778  0.77777778  1.371742e-03
  0.00000000  0.77777778  0.88888889  1.371742e-03
  0.00000000  0.88888889  0.00000000  1.371742e-03
  0.00000000  0.88888889  0.11111111  1.371742e-03
  0.00000000  0.88888889  0.22222222  1.371742e-03
  0.00000000  0.88888889  0.33333333  1.371742e-03
  0.00000000  0.88888889  0.44444444  1.371742e-03
  0.00000000  0.88888889  0.55555556  1.371742e-03
  0.00000000  0.88888889  0.66666667  1.371742e-03
  0.00000000  0.88888889  0.77777778  1.371742e-03
  0.00000000  0.88888889  0.88888889  1.371742e-03
  0.11111111  0.00000000  0.00000000  1.371742e-03
  0.11111111  0.00000000  0.11111111  1.371742e-03
  0.11111111  0.00000000  0.22222222  1.371742e-03
  0.11111111  0.00000000  0.33333333  1.371742e-03
  0.11111111  0.00000000  0.44444444  1.371742e-03
  0.11111111  0.00000000  0.55555556  1.371742e-03
  0.11111111  0.00000000  0.66666667  1.371742e-03
  0.11111111  0.00000000  0.77777778  1.371742e-03
  0.11111111  0.00000000  0.88888889  1.371742e-03
  0.11111111  0.11111111  0.00000000  1.371742e-03
  0.11111111  0.11111111  0.11111111  1.371742e-03
  0.11111111  0.11111111  0.22222222  1.371742e-03
  0.11111111  0.11111111  0.33333333  1.371742e-03
  0.11111111  0.11111111  0.44444444  1.371742e-03
  0.11111111  0.11111111  0.55555556  1.371742e-03
  0.11111111  0.11111111  0.66666667  1.371742e-03
  0.11111111  0.11111111  0.77777778  1.371742e-03
  0.11111111  0.11111111  0.88888889  1.371742e-03
  0.11111111  0.22222222  0.00000000  1.371742e-03
  0.11111111  0.22222222  0.11111111  1.371742e-03
  0.11111111  0.22222222  0.22222222  1.371742e-03
  0.11111111  0.22222222  0.33333333  1.371742e-03
  0.11111111  0.22222222  0.44444444  1.371742e-03
  0.11111111  0.22222222  0.55555556  1.371742e-03
  0.11111111  0.22222222  0.66666667  1.371742e-03
  0.11111111  0.22222222  0.77777778  1.371742e-03
  0.11111111  0.22222222  0.88888889  1.371742e-03
  0.11111111  0.33333333  0.00000000  1.371742e-03
  0.11111111  0.33333333  0.11111111  1.371742e-03
  0.11111111  0.33333333  0.22222222  1.371742e-03
  0.11111111  0.33333333  0.33333333  1.371742e-03
  0.11111111  0.33333333  0.44444444  1.371742e-03
  0.11111111  0.33333333  0.55555556  1.371742e-03
  0.11111111  0.33333333  0.66666667  1.371742e-03
  0.11111111  0.33333333  0.77777778  1.371742e-03
  0.11111111  0.33333333  0.88888889  1.371742e-03
  0.11111111  0.44444444  0.00000000  1.371742e-03
  0.11111111  0.44444444  0.11111111  1.371742e-03
  0.11111111  0.44444444  0.22222222  1.371742e-03
  0.11111111  0.44444444  0.33333333  1.371742e-03
  0.11111111  0.44444444  0.44444444  1.371742e-03
  0.11111111  0.44444444  0.55555556  1.371742e-03
  0.11111111  0.44444444  0.66666667  1.371742e-03
  0.11111111  0.44444444  0.77777778  1.371742e-03
  0.11111111  0.44444444  0.88888889  1.371742e-03
  0.11111111  0.55555556  0.00000000  1.371742e-03
  0.11111111  0.55555556  0.11111111  1.371742e-03
  0.11111111  0.55555556  0.22222222  1.371742e-03
  0.11111111  0.55555556  0.33333333  1.371742e-03
  0.11111111  0.55555556  0.44444444  1.371742e-03
  0.11111111  0.55555556  0.55555556  1.371742e-03
  0.11111111  0.55555556  0.66666667  1.371742e-03
  0.11111111  0.55555556  0.77777778  1.371742e-03
  0.11111111  0.55555556  0.88888889  1.371742e-03
  0.11111111  0.66666667  0.00000000  1.371742e-03
  0.11111111  0.66666667  0.11111111  1.371742e-03
  0.11111111  0.66666667  0.22222222  1.371742e-03
  0.11111111  0.66666667  0.33333333  1.371742e-03
  0.11111111  0.66666667  0.44444444  1.371742e-03
  0.11111111  0.66666667  0.55555556  1.371742e-03
  0.11111111  0.66666667  0.66666667  1.371742e-03
  0.11111111  0.66666667  0.77777778  1.371742e-03
  0.11111111  0.66666667  0.88888889  1.371742e-03
  0.11111111  0.77777778  0.00000000  1.371742e-03
  0.11111111  0.77777778  0.11111111  1.371742e-03
  0.11111111  0.77777778  0.22222222  1.371742e-03
  0.11111111  0.77777778  0.33333333  1.371742e-03
  0.11111111  0.77777778  0.44444444  1.371742e-03
  0.11111111  0.77777778  0.55555556  1.371742e-03
  0.11111111  0.77777778  0.66666667  1.371742e-03
  0.11111111  0.77777778  0.77777778  1.371742e-03
  0.11111111  0.77777778  0.88888889  1.371742e-03
  0.11111111  0.88888889  0.00000000  1.371742e-03
  0.11111111  0.88888889  0.11111111  1.371742e-03
  0.11111111  0.88888889  0.22222222  1.371742e-03
  0.11111111  0.88888889  0.33333333  1.371742e-03
  0.11111111  0.88888889  0.44444444  1.371742e-03
  0.11111111  0.88888889  0.55555556  1.371742e-03
  0.11111111  0.88888889  0.66666667  1.371742e-03
  0.11111111  0.88888889  0.77777778  1.371742e-03
  0.11111111  0.88888889  0.88888889  1.371742e-03
  0.22222222  0.00000000  0.00000000  1.371742e-03
  0.22222222  0.00000000  0.11111111  1.371742e-03
  0.22222222  0.00000000  0.22222222  1.371742e-03
  0.22222222  0.00000000  0.33333333  1.371742e-03
  0.22222222  0.00000000  0.44444444  1.371742e-03
  0.22222222  0.00000000  0.55555556  1.371742e-03
  0.22222222  0.00000000  0.66666667  1.371742e-03
  0.22222222  0.00000000  0.77777778  1.371742e-03
  0.22222222  0.00000000  0.88888889  1.371742e-03
  0.22222222  0.11111111  0.00000000  1.371742e-03
  0.22222222  0.11111111  0.11111111  1.371742e-03
  0.22222222  0.11111111  0.22222222  1.371742e-03
  0.22222222  0.11111111  0.33333333  1.371742e-03
  0.22222222  0.11111111  0.44444444  1.371742e-03
  0.22222222  0.11111111  0.55555556  1.371742e-03
  0.22222222  0.11111111  0.66666667  1.371742e-03
  0.22222222  0.11111111  0.77777778  1.371742e-03
  0.22222222  0.11111111  0.88888889  1.371742e-03
  0.22222222  0.22222222  0.00000000  1.371742e-03
  0.22222222  0.22222222  0.11111111  1.371742e-03
  0.22222222  0.22222222  0.22222222  1.371742e-03
  0.22222222  0.22222222  0.33333333  1.371742e-03
  0.22222222  0.22222222  0.44444444  1.371742e-03
  0.22222222  0.22222222  0.55555556  1.371742e-03
  0.22222222  0.22222222  0.66666667  1.371742e-03
  0.22222222  0.22222222  0.77777778  1.371742e-03
  0.22222222  0.22222222  0.88888889  1.371742e-03
  0.22222222  0.33333333  0.00000000  1.371742e-03
  0.22222222  0.33333333  0.11111111  1.371742e-03
  0.22222222  0.33333333  0.22222222  1.371742e-03
  0.22222222  0.33333333  0.33333333  1.371742e-03
  0.22222222  0.33333333  0.44444444  1.371742e-03
  0.22222222  0.33333333  0.55555556  1.371742e-03
  0.22222222  0.33333333  0.66666667  1.371742e-03
  0.22222222  0.33333333  0.77777778  1.371742e-03
  0.22222222  0.33333333  0.88888889  1.371742e-03
  0.22222222  0.44444444  0.00000000  1.371742e-03
  0.22222222  0.44444444  0.11111111  1.371742e-03
  0.22222222  0.44444444  0.22222222  1.371742e-03
  0.22222222  0.44444444  0.33333333  1.371742e-03
  0.22222222  0.44444444  0.44444444  1.371742e-03
  0.22222222  0.44444444  0.55555556  1.371742e-03
  0.22222222  0.44444444  0.66666667  1.371742e-03
  0.22222222  0.44444444  0.77777778  1.371742e-03
  0.22222222  0.44444444  0.88888889  1.371742e-03
  0.22222222  0.55555556  0.00000000  1.371742e-03
  0.22222222  0.55555556  0.11111111  1.371742e-03
  0.22222222  0.55555556  0.22222222  1.371742e-03
  0.22222222  0.55555556  0.33333333  1.371742e-03
  0.22222222  0.55555556  0.44444444  1.371742e-03
  0.22222222  0.55555556  0.55555556  1.371742e-03
  0.22222222  0.55555556  0.66666667  1.371742e-03
  0.22222222  0.55555556  0.77777778  1.371742e-03
  0.22222222  0.55555556  0.88888889  1.371742e-03
  0.22222222  0.66666667  0.00000000  1.371742e-03
  0.22222222  0.66666667  0.11111111  1.371742e-03
  0.22222222  0.66666667  0.22222222  1.371742e-03
  0.22222222  0.66666667  0.33333333  1.371742e-03
  0.22222222  0.66666667  0.44444444  1.371742e-03
  0.22222222  0.66666667  0.55555556  1.371742e-03
  0.22222222  0.66666667  0.66666667  1.371742e-03
  0.22222222  0.66666667  0.77777778  1.371742e-03
  0.22222222  0.66666667  0.88888889  1.371742e-03
  0.22222222  0.77777778  0.00000000  1.371742e-03
  0.22222222  0.77777778  0.11111111  1.371742e-03
  0.22222222  0.77777778  0.22222222  1.371742e-03
  0.22222222  0.77777778  0.33333333  1.371742e-03
  0.22222222  0.77777778  0.44444444  1.371742e-03
  0.22222222  0.77777778  0.55555556  1.371742e-03
  0.22222222  0.77777778  0.66666667  1.371742e-03
  0.22222222  0.77777778  0.77777778  1.371742e-03
  0.22222222  0.77777778  0.88888889  1.371742e-03
  0.22222222  0.88888889  0.00000000  1.371742e-03
  0.22222222  0.88888889  0.11111111  1.371742e-03
  0.22222222  0.88888889  0.22222222  1.371742e-03
  0.22222222  0.88888889  0.33333333  1.371742e-03
  0.22222222  0.88888889  0.44444444  1.371742e-03
  0.22222222  0.88888889  0.55555556  1.371742e-03
  0.22222222  0.88888889  0.66666667  1.371742e-03
  0.22222222  0.88888889  0.77777778  1.371742e-03
  0.22222222  0.88888889  0.88888889  1.371742e-03
  0.33333333  0.00000000  0.00000000  1.371742e-03
  0.33333333  0.00000000  0.11111111  1.371742e-03
  0.33333333  0.00000000  0.22222222  1.371742e-03
  0.33333333  0.00000000  0.33333333  1.371742e-03
  0.33333333  0.00000000  0.44444444  1.371742e-03
  0.33333333  0.00000000  0.55555556  1.371742e-03
  0.33333333  0.00000000  0.66666667  1.371742e-03
  0.33333333  0.00000000  0.77777778  1.371742e-03
  0.33333333  0.00000000  0.88888889  1.371742e-03
  0.33333333  0.11111111  0.00000000  1.371742e-03
  0.33333333  0.11111111  0.11111111  1.371742e-03
  0.33333333  0.11111111  0.22222222  1.371742e-03
  0.33333333  0.11111111  0.33333333  1.371742e-03
  0.33333333  0.11111111  0.44444444  1.371742e-03
  0.33333333  0.11111111  0.55555556  1.371742e-03
  0.33333333  0.11111111  0.66666667  1.371742e-03
  0.33333333  0.11111111  0.77777778  1.371742e-03
  0.33333333  0.11111111  0.88888889  1.371742e-03
  0.33333333  0.22222222  0.00000000  1.371742e-03
  0.33333333  0.22222222  0.11111111  1.371742e-03
  0.33333333  0.22222222  0.22222222  1.371742e-03
  0.33333333  0.22222222  0.33333333  1.371742e-03
  0.33333333  0.22222222  0.44444444  1.371742e-03
  0.33333333  0.22222222  0.55555556  1.371742e-03
  0.33333333  0.22222222  0.66666667  1.371742e-03
  0.33333333  0.22222222  0.77777778  1.371742e-03
  0.33333333  0.22222222  0.88888889  1.371742e-03
  0.33333333  0.33333333  0.00000000  1.371742e-03
  0.33333333  0.33333333  0.11111111  1.371742e-03
  0.33333333  0.33333333  0.22222222  1.371742e-03
  0.33333333  0.33333333  0.33333333  1.371742e-03
  0.33333333  0.33333333  0.44444444  1.371742e-03
  0.33333333  0.33333333  0.55555556  1.371742e-03
  0.33333333  0.33333333  0.66666667  1.371742e-03
  0.33333333  0.33333333  0.77777778  1.371742e-03
  0.33333333  0.33333333  0.88888889  1.371742e-03
  0.33333333  0.44444444  0.00000000  1.371742e-03
  0.33333333  0.44444444  0.11111111  1.371742e-03
  0.33333333  0.44444444  0.22222222  1.371742e-03
  0.33333333  0.44444444  0.33333333  1.371742e-03
  0.33333333  0.44444444  0.44444444  1.371742e-03
  0.33333333  0.44444444  0.55555556  1.371742e-03
  0.33333333  0.44444444  0.66666667  1.371742e-03
  0.33333333  0.44444444  0.77777778  1.371742e-03
  0.33333333  0.44444444  0.88888889  1.371742e-03
  0.33333333  0.55555556  0.00000000  1.371742e-03
  0.33333333  0.55555556  0.11111111  1.371742e-03
  0.33333333  0.55555556  0.22222222  1.371742e-03
  0.33333333  0.55555556  0.33333333  1.371742e-03
  0.33333333  0.55555556  0.44444444  1.371742e-03
  0.33333333  0.55555556  0.55555556  1.371742e-03
  0.33333333  0.55555556  0.66666667  1.371742e-03
  0.33333333  0.55555556  0.77777778  1.371742e-03
  0.33333333  0.55555556  0.88888889  1.371742e-03
  0.33333333  0.66666667  0.00000000  1.371742e-03
  0.33333333  0.66666667  0.11111111  1.371742e-03
  0.33333333  0.66666667  0.22222222  1.371742e-03
  0.33333333  0.66666667  0.33333333  1.371742e-03
  0.33333333  0.66666667  0.44444444  1.371742e-03
  0.33333333  0.66666667  0.55555556  1.371742e-03
  0.33333333  0.66666667  0.66666667  1.371742e-03
  0.33333333  0.66666667  0.77777778  1.371742e-03
  0.33333333  0.66666667  0.88888889  1.371742e-03
  0.33333333  0.77777778  0.00000000  1.371742e-03
  0.33333333  0.77777778  0.11111111  1.371742e-03
  0.33333333  0.77777778  0.22222222  1.371742e-03
  0.33333333  0.77777778  0.33333333  1.371742e-03
  0.33333333  0.77777778  0.44444444  1.371742e-03
  0.33333333  0.77777778  0.55555556  1.371742e-03
  0.33333333  0.77777778  0.66666667  1.371742e-03
  0.33333333  0.77777778  0.77777778  1.371742e-03
  0.33333333  0.77777778  0.88888889  1.371742e-03
  0.33333333  0.88888889  0.00000000  1.371742e-03
  0.33333333  0.88888889  0.11111111  1.371742e-03
  0.33333333  0.88888889  0.22222222  1.371742e-03
  0.33333333  0.88888889  0.33333333  1.371742e-03
  0.33333333  0.88888889  0.44444444  1.371742e-03
  0.33333333  0.88888889  0.55555556  1.371742e-03
  0.33333333  0.88888889  0.66666667  1.371742e-03
  0.33333333  0.88888889  0.77777778  1.371742e-03
  0.33333333  0.88888889  0.88888889  1.371742e-03
  0.44444444  0.00000000  0.00000000  1.371742e-03
  0.44444444  0.00000000  0.11111111  1.371742e-03
  0.44444444  0.00000000  0.22222222  1.371742e-03
  0.44444444  0.00000000  0.33333333  1.371742e-03
  0.44444444  0.00000000  0.44444444  1.371742e-03
  0.44444444  0.00000000  0.55555556  1.371742e-03
  0.44444444  0.00000000  0.66666667  1.371742e-03
  0.44444444  0.00000000  0.77777778  1.371742e-03
  0.44444444  0.00000000  0.88888889  1.371742e-03
  0.44444444  0.11111111  0.00000000  1.371742e-03
  0.44444444  0.11111111  0.11111111  1.371742e-03
  0.44444444  0.11111111  0.22222222  1.371742e-03
  0.44444444  0.11111111  0.33333333  1.371742e-03
  0.44444444  0.11111111  0.44444444  1.371742e-03
  0.44444444  0.11111111  0.55555556  1.371742e-03
  0.44444444  0.11111111  0.66666667  1.371742e-03
  0.44444444  0.11111111  0.77777778  1.371742e-03
  0.44444444  0.11111111  0.88888889  1.371742e-03
  0.44444444  0.22222222  0.00000000  1.371742e-03
  0.44444444  0.22222222  0.11111111  1.371742e-03
  0.44444444  0.22222222  0.22222222  1.371742e-03
  0.44444444  0.22222222  0.33333333  1.371742e-03
  0.44444444  0.22222222  0.44444444  1.371742e-03
  0.44444444  0.22222222  0.55555556  1.371742e-03
  0.44444444  0.22222222  0.66666667  1.371742e-03
  0.44444444  0.22222222  0.77777778  1.371742e-03
  0.44444444  0.22222222  0.88888889  1.371742e-03
  0.44444444  0.33333333  0.00000000  1.371742e-03
  0.44444444  0.33333333  0.11111111  1.371742e-03
  0.44444444  0.33333333  0.22222222  1.371742e-03
  0.44444444  0.33333333  0.33333333  1.371742e-03
  0.44444444  0.33333333  0.44444444  1.371742e-03
  0.44444444  0.33333333  0.55555556  1.371742e-03
  0.44444444  0.33333333  0.66666667  1.371742e-03
  0.44444444  0.33333333  0.77777778  1.371742e-03
  0.44444444  0.33333333  0.88888889  1.371742e-03
  0.44444444  0.44444444  0.00000000  1.371742e-03
  0.44444444  0.44444444  0.11111111  1.371742e-03
  0.44444444  0.44444444  0.22222222  1.371742e-03
  0.44444444  0.44444444  0.33333333  1.371742e-03
  0.44444444  0.44444444  0.44444444  1.371742e-03
  0.44444444  0.44444444  0.55555556  1.371742e-03
  0.44444444  0.44444444  0.66666667  1.371742e-03
  0.44444444  0.44444444  0.77777778  1.371742e-03
  0.44444444  0.44444444  0.88888889  1.371742e-03
  0.44444444  0.55555556  0.00000000  1.371742e-03
  0.44444444  0.55555556  0.11111111  1.371742e-03
  0.44444444  0.55555556  0.22222222  1.371742e-03
  0.44444444  0.55555556  0.33333333  1.371742e-03
  0.44444444  0.55555556  0.44444444  1.371742e-03
  0.44444444  0.55555556  0.55555556  1.371742e-03
  0.44444444  0.55555556  0.66666667  1.371742e-03
  0.44444444  0.55555556  0.77777778  1.371742e-03
  0.44444444  0.55555556  0.88888889  1.371742e-03
  0.44444444  0.66666667  0.00000000  1.371742e-03
  0.44444444  0.66666667  0.11111111  1.371742e-03
  0.44444444  0.66666667  0.22222222  1.371742e-03
  0.44444444  0.66666667  0.33333333  1.371742e-03
  0.44444444  0.66666667  0.44444444  1.371742e-03
  0.44444444  0.66666667  0.55555556  1.371742e-03
  0.44444444  0.66666667  0.66666667  1.371742e-03
  0.44444444  0.66666667  0.77777778  1.371742e-03
  0.44444444  0.66666667  0.88888889  1.371742e-03
  0.44444444  0.77777778  0.00000000  1.371742e-03
  0.44444444  0.77777778  0.11111111  1.371742e-03
  0.44444444  0.77777778  0.22222222  1.371742e-03
  0.44444444  0.77777778  0.33333333  1.371742e-03
  0.44444444  0.77777778  0.44444444  1.371742e-03
  0.44444444  0.77777778  0.55555556  1.371742e-03
  0.44444444  0.77777778  0.66666667  1.371742e-03
  0.44444444  0.77777778  0.77777778  1.371742e-03
  0.44444444  0.77777778  0.88888889  1.371742e-03
  0.44444444  0.88888889  0.00000000  1.371742e-03
  0.44444444  0.88888889  0.11111111  1.371742e-03
  0.44444444  0.88888889  0.22222222  1.371742e-03
  0.44444444  0.88888889  0.33333333  1.371742e-03
  0.44444444  0.88888889  0.44444444  1.371742e-03
  0.44444444  0.88888889  0.55555556  1.371742e-03
  0.44444444  0.88888889  0.66666667  1.371742e-03
  0.44444444  0.88888889  0.77777778  1.371742e-03
  0.44444444  0.88888889  0.88888889  1.371742e-03
  0.55555556  0.00000000  0.00000000  1.371742e-03
  0.55555556  0.00000000  0.11111111  1.371742e-03
  0.55555556  0.00000000  0.22222222  1.371742e-03
  0.55555556  0.00000000  0.33333333  1.371742e-03
  0.55555556  0.00000000  0.44444444  1.371742e-03
  0.55555556  0.00000000  0.55555556  1.371742e-03
  0.55555556  0.00000000  0.66666667  1.371742e-03
  0.55555556  0.00000000  0.77777778  1.371742e-03
  0.55555556  0.00000000  0.88888889  1.371742e-03
  0.55555556  0.11111111  0.00000000  1.371742e-03
  0.55555556  0.11111111  0.11111111  1.371742e-03
  0.55555556  0.11111111  0.22222222  1.371742e-03
  0.55555556  0.11111111  0.33333333  1.371742e-03
  0.55555556  0.11111111  0.44444444  1.371742e-03
  0.55555556  0.11111111  0.55555556  1.371742e-03
  0.55555556  0.11111111  0.66666667  1.371742e-03
  0.55555556  0.11111111  0.77777778  1.371742e-03
  0.55555556  0.11111111  0.88888889  1.371742e-03
  0.55555556  0.22222222  0.00000000  1.371742e-03
  0.55555556  0.22222222  0.11111111  1.371742e-03
  0.55555556  0.22222222  0.22222222  1.371742e-03
  0.55555556  0.22222222  0.33333333  1.371742e-03
  0.55555556  0.22222222  0.44444444  1.371742e-03
  0.55555556  0.22222222  0.55555556  1.371742e-03
  0.55555556  0.22222222  0.66666667  1.371742e-03
  0.55555556  0.22222222  0.77777778  1.371742e-03
  0.55555556  0.22222222  0.88888889  1.371742e-03
  0.55555556  0.33333333  0.00000000  1.371742e-03
  0.55555556  0.33333333  0.11111111  1.371742e-03
  0.55555556  0.33333333  0.22222222  1.371742e-03
  0.55555556  0.33333333  0.33333333  1.371742e-03
  0.55555556  0.33333333  0.44444444  1.371742e-03
  0.55555556  0.33333333  0.55555556  1.371742e-03
  0.55555556  0.33333333  0.66666667  1.371742e-03
  0.55555556  0.33333333  0.77777778  1.371742e-03
  0.55555556  0.33333333  0.88888889  1.371742e-03
  0.55555556  0.44444444  0.00000000  1.371742e-03
  0.55555556  0.44444444  0.11111111  1.371742e-03
  0.55555556  0.44444444  0.22222222  1.371742e-03
  0.55555556  0.44444444  0.33333333  1.371742e-03
  0.55555556  0.44444444  0.44444444  1.371742e-03
  0.55555556  0.44444444  0.55555556  1.371742e-03
  0.55555556  0.44444444  0.66666667  1.371742e-03
  0.55555556  0.44444444  0.77777778  1.371742e-03
  0.55555556  0.44444444  0.88888889  1.371742e-03
  0.55555556  0.55555556  0.00000000  1.371742e-03
  0.55555556  0.55555556  0.11111111  1.371742e-03
  0.55555556  0.55555556  0.22222222  1.371742e-03
  0.55555556  0.55555556  0.33333333  1.371742e-03
  0.55555556  0.55555556  0.44444444  1.371742e-03
  0.55555556  0.55555556  0.55555556  1.371742e-03
  0.55555556  0.55555556  0.66666667  1.371742e-03
  0.55555556  0.55555556  0.77777778  1.371742e-03
  0.55555556  0.55555556  0.88888889  1.371742e-03
  0.55555556  0.66666667  0.00000000  1.371742e-03
  0.55555556  0.66666667  0.11111111  1.371742e-03
  0.55555556  0.66666667  0.22222222  1.371742e-03
  0.55555556  0.66666667  0.33333333  1.371742e-03
  0.55555556  0.66666667  0.44444444  1.371742e-03
  0.55555556  0.66666667  0.55555556  1.371742e-03
  0.55555556  0.66666667  0.66666667  1.371742e-03
  0.55555556  0.66666667  0.77777778  1.371742e-03
  0.55555556  0.66666667  0.88888889  1.371742e-03
  0.55555556  0.77777778  0.00000000  1.371742e-03
  0.55555556  0.77777778  0.11111111  1.371742e-03
  0.55555556  0.77777778  0.22222222  1.371742e-03
  0.55555556  0.77777778  0.33333333  1.371742e-03
  0.55555556  0.77777778  0.44444444  1.371742e-03
  0.55555556  0.77777778  0.55555556  1.371742e-03
  0.55555556  0.77777778  0.66666667  1.371742e-03
  0.55555556  0.77777778  0.77777778  1.371742e-03
  0.55555556  0.77777778  0.88888889  1.371742e-03
  0.55555556  0.88888889  0.00000000  1.371742e-03
  0.55555556  0.88888889  0.11111111  1.371742e-03
  0.55555556  0.88888889  0.22222222  1.371742e-03
  0.55555556  0.88888889  0.33333333  1.371742e-03
  0.55555556  0.88888889  0.44444444  1.371742e-03
  0.55555556  0.88888889  0.55555556  1.371742e-03
  0.55555556  0.88888889  0.66666667  1.371742e-03
  0.55555556  0.88888889  0.77777778  1.371742e-03
  0.55555556  0.88888889  0.88888889  1.371742e-03
  0.66666667  0.00000000  0.00000000  1.371742e-03
  0.66666667  0.00000000  0.11111111  1.371742e-03
  0.66666667  0.00000000  0.22222222  1.371742e-03
  0.66666667  0.00000000  0.33333333  1.371742e-03
  0.66666667  0.00000000  0.44444444  1.371742e-03
  0.66666667  0.00000000  0.55555556  1.371742e-03
  0.66666667  0.00000000  0.66666667  1.371742e-03
  0.66666667  0.00000000  0.77777778  1.371742e-03
  0.66666667  0.00000000  0.88888889  1.371742e-03
  0.66666667  0.11111111  0.00000000  1.371742e-03
  0.66666667  0.11111111  0.11111111  1.371742e-03
  0.66666667  0.11111111  0.22222222  1.371742e-03
  0.66666667  0.11111111  0.33333333  1.371742e-03
  0.66666667  0.11111111  0.44444444  1.371742e-03
  0.66666667  0.11111111  0.55555556  1.371742e-03
  0.66666667  0.11111111  0.66666667  1.371742e-03
  0.66666667  0.11111111  0.77777778  1.371742e-03
  0.66666667  0.11111111  0.88888889  1.371742e-03
  0.66666667  0.22222222  0.00000000  1.371742e-03
  0.66666667  0.22222222  0.11111111  1.371742e-03
  0.66666667  0.22222222  0.22222222  1.371742e-03
  0.66666667  0.22222222  0.33333333  1.371742e-03
  0.66666667  0.22222222  0.44444444  1.371742e-03
  0.66666667  0.22222222  0.55555556  1.371742e-03
  0.66666667  0.22222222  0.66666667  1.371742e-03
  0.66666667  0.22222222  0.77777778  1.371742e-03
  0.66666667  0.22222222  0.88888889  1.371742e-03
  0.66666667  0.33333333  0.00000000  1.371742e-03
  0.66666667  0.33333333  0.11111111  1.371742e-03
  0.66666667  0.33333333  0.22222222  1.371742e-03
  0.66666667  0.33333333  0.33333333  1.371742e-03
  0.66666667  0.33333333  0.44444444  1.371742e-03
  0.66666667  0.33333333  0.55555556  1.371742e-03
  0.66666667  0.33333333  0.66666667  1.371742e-03
  0.66666667  0.33333333  0.77777778  1.371742e-03
  0.66666667  0.33333333  0.88888889  1.371742e-03
  0.66666667  0.44444444  0.00000000  1.371742e-03
  0.66666667  0.44444444  0.11111111  1.371742e-03
  0.66666667  0.44444444  0.22222222  1.371742e-03
  0.66666667  0.44444444  0.33333333  1.371742e-03
  0.66666667  0.44444444  0.44444444  1.371742e-03
  0.66666667  0.44444444  0.55555556  1.371742e-03
  0.66666667  0.44444444  0.66666667  1.371742e-03
  0.66666667  0.44444444  0.77777778  1.371742e-03
  0.66666667  0.44444444  0.88888889  1.371742e-03
  0.66666667  0.55555556  0.00000000  1.371742e-03
  0.66666667  0.55555556  0.11111111  1.371742e-03
  0.66666667  0.55555556  0.22222222  1.371742e-03
  0.66666667  0.55555556  0.33333333  1.371742e-03
  0.66666667  0.55555556  0.44444444  1.371742e-03
  0.66666667  0.55555556  0.55555556  1.371742e-03
  0.66666667  0.55555556  0.66666667  1.371742e-03
  0.66666667  0.55555556  0.77777778  1.371742e-03
  0.66666667  0.55555556  0.88888889  1.371742e-03
  0.66666667  0.66666667  0.00000000  1.371742e-03
  0.66666667  0.66666667  0.11111111  1.371742e-03
  0.66666667  0.66666667  0.22222222  1.371742e-03
  0.66666667  0.66666667  0.33333333  1.371742e-03
  0.66666667  0.66666667  0.44444444  1.371742e-03
  0.66666667  0.66666667  0.55555556  1.371742e-03
  0.66666667  0.66666667  0.66666667  1.371742e-03
  0.66666667  0.66666667  0.77777778  1.371742e-03
  0.66666667  0.66666667  0.88888889  1.371742e-03
  0.66666667  0.77777778  0.00000000  1.371742e-03
  0.66666667  0.77777778  0.11111111  1.371742e-03
  0.66666667  0.77777778  0.22222222  1.371742e-03
  0.66666667  0.77777778  0.33333333  1.371742e-03
  0.66666667  0.77777778  0.44444444  1.371742e-03
  0.66666667  0.77777778  0.55555556  1.371742e-03
  0.66666667  0.77777778  0.66666667  1.371742e-03
  0.66666667  0.77777778  0.77777778  1.371742e-03
  0.66666667  0.77777778  0.88888889  1.371742e-03
  0.66666667  0.88888889  0.00000000  1.371742e-03
  0.66666667  0.88888889  0.11111111  1.371742e-03
  0.66666667  0.88888889  0.22222222  1.371742e-03
  0.66666667  0.88888889  0.33333333  1.371742e-03
  0.66666667  0.88888889  0.44444444  1.371742e-03