num_bands         =   1
num_wann          =   1
exclude_bands = 1-16

num_iter = 200
conv_window = 3

guiding_centres = T

fermi_energy = 4.6459

begin projections
Cu:s
end projections

bands_plot = .true.
bands_num_points = 50

wannier_plot = .false.
wannier_plot_radius = 10.5
wannier_plot_supercell = 7
wannier_plot_format = cube

begin kpoint_path
 Γ   0.0000000000      0.0000000000      0.0000000000  C     0.0000000000      0.3269569323      0.3269569323
C₂  -1.0000000000     -0.3269569323      0.6730430677 Y₂    -1.0000000000     -0.5000000000      0.5000000000
Y₂  -1.0000000000     -0.5000000000      0.5000000000  Γ     0.0000000000     -0.0000000000      0.0000000000
 Γ   0.0000000000     -0.0000000000      0.0000000000 M₂    -0.5000000000     -0.5000000000      0.5000000000
M₂  -0.5000000000     -0.5000000000      0.5000000000  D    -0.5000000000     -0.2880331596      0.7119668404
D₂   0.5000000000      0.2880331596      0.2880331596  A     0.5000000000      0.0000000000      0.0000000000
 A   0.5000000000      0.0000000000      0.0000000000  Γ     0.0000000000      0.0000000000      0.0000000000
L₂   0.0000000000     -0.0000000000      0.5000000000  Γ     0.0000000000      0.0000000000      0.0000000000
 Γ   0.0000000000      0.0000000000      0.0000000000 V₂    -0.5000000000      0.0000000000      0.5000000000
end kpoint_path

begin unit_cell_cart
ang
  7.140000000000000   0.000000000000000   0.000000000000000
  1.857036514247435   1.730000000000000  -3.072379433720994
 -1.857036514247435   1.730000000000000   3.072379433720994
end unit_cell_cart

begin atoms_frac
Cu  0.000000000000000   0.500000000000000   0.500000000000000
Br  0.240000000000000   0.985000000000000   0.015000000000000
Br  0.760000000000000   0.015000000000000   0.985000000000000
end atoms_frac

mp_grid = 4 4 4

begin kpoints
  0.00000000  0.00000000  0.00000000
  0.00000000  0.00000000  0.25000000
  0.00000000  0.00000000  0.50000000
  0.00000000  0.00000000  0.75000000
  0.00000000  0.25000000  0.00000000
  0.00000000  0.25000000  0.25000000
  0.00000000  0.25000000  0.50000000
  0.00000000  0.25000000  0.75000000
  0.00000000  0.50000000  0.00000000
  0.00000000  0.50000000  0.25000000
  0.00000000  0.50000000  0.50000000
  0.00000000  0.50000000  0.75000000
  0.00000000  0.75000000  0.00000000
  0.00000000  0.75000000  0.25000000
  0.00000000  0.75000000  0.50000000
  0.00000000  0.75000000  0.75000000
  0.25000000  0.00000000  0.00000000
  0.25000000  0.00000000  0.25000000
  0.25000000  0.00000000  0.50000000
  0.25000000  0.00000000  0.75000000
  0.25000000  0.25000000  0.00000000
  0.25000000  0.25000000  0.25000000
  0.25000000  0.25000000  0.50000000
  0.25000000  0.25000000  0.75000000
  0.25000000  0.50000000  0.00000000
  0.25000000  0.50000000  0.25000000
  0.25000000  0.50000000  0.50000000
  0.25000000  0.50000000  0.75000000
  0.25000000  0.75000000  0.00000000
  0.25000000  0.75000000  0.25000000
  0.25000000  0.75000000  0.50000000
  0.25000000  0.75000000  0.75000000
  0.50000000  0.00000000  0.00000000
  0.50000000  0.00000000  0.25000000
  0.50000000  0.00000000  0.50000000
  0.50000000  0.00000000  0.75000000
  0.50000000  0.25000000  0.00000000
  0.50000000  0.25000000  0.25000000
  0.50000000  0.25000000  0.50000000
  0.50000000  0.25000000  0.75000000
  0.50000000  0.50000000  0.00000000
  0.50000000  0.50000000  0.25000000
  0.50000000  0.50000000  0.50000000
  0.50000000  0.50000000  0.75000000
  0.50000000  0.75000000  0.00000000
  0.50000000  0.75000000  0.25000000
  0.50000000  0.75000000  0.50000000
  0.50000000  0.75000000  0.75000000
  0.75000000  0.00000000  0.00000000
  0.75000000  0.00000000  0.25000000
  0.75000000  0.00000000  0.50000000
  0.75000000  0.00000000  0.75000000
  0.75000000  0.25000000  0.00000000
  0.75000000  0.25000000  0.25000000
  0.75000000  0.25000000  0.50000000
  0.75000000  0.25000000  0.75000000
  0.75000000  0.50000000  0.00000000
  0.75000000  0.50000000  0.25000000
  0.75000000  0.50000000  0.50000000
  0.75000000  0.50000000  0.75000000
  0.75000000  0.75000000  0.00000000
  0.75000000  0.75000000  0.25000000
  0.75000000  0.75000000  0.50000000
  0.75000000  0.75000000  0.75000000
end kpoints
