&PROJWFC
  deltae =   2.0000000000d-01
! lsym = .true.
  outdir = './out'
  prefix = 'gra'
  filproj = 'graphene'
/
