bands_plot = .true.
conv_tol =   2.0000000000d-07
conv_window = 3
fermi_energy =   16.8985
mp_grid = 4 4 4
num_bands = 12
num_cg_steps = 200
num_iter = 4000
num_wann = 7
exclude_bands = 1-4
spn_formatted = .true.
wannier_plot = .false.
# wannier_plot_format = cube
wannier_plot_supercell = 3
wvfn_formatted = .true.

dis_froz_max = 18
dis_conv_window = 3

begin atoms_frac
Cu         0.0000000000       0.0000000000       0.0000000000
end atoms_frac

begin projections
Cu: d
f= 0.25, 0.25, 0.25:s    
f=-0.25,-0.25,-0.25:s
end projections

begin unit_cell_cart
ang
   -1.4430983361036    1.4430983361036    1.3630841209524
    1.4430983361036   -1.4430983361036    1.3630841209524
    1.4430983361036    1.4430983361036   -1.3630841209524
end unit_cell_cart

begin kpoint_path
 Γ   0.0000000000      0.0000000000      0.0000000000 X   0.0000000000      0.0000000000      0.5000000000
 X   0.0000000000      0.0000000000      0.5000000000 M  -0.5000000000      0.5000000000      0.5000000000
 M  -0.5000000000      0.5000000000      0.5000000000 Γ   0.0000000000      0.0000000000      0.0000000000
 Γ   0.0000000000      0.0000000000      0.0000000000 Z   0.4730455042      0.4730455042     -0.4730455042
Z₀  -0.4730455042      0.5269544958      0.4730455042 M  -0.5000000000      0.5000000000      0.5000000000
 X   0.0000000000      0.0000000000      0.5000000000 P   0.2500000000      0.2500000000      0.2500000000
 P   0.2500000000      0.2500000000      0.2500000000 N   0.0000000000      0.5000000000      0.0000000000
 N   0.0000000000      0.5000000000      0.0000000000 Γ   0.0000000000      0.0000000000      0.0000000000
end kpoint_path

begin kpoints
  0.00000000  0.00000000  0.00000000  1.562500e-02
  0.00000000  0.00000000  0.25000000  1.562500e-02
  0.00000000  0.00000000  0.50000000  1.562500e-02
  0.00000000  0.00000000  0.75000000  1.562500e-02
  0.00000000  0.25000000  0.00000000  1.562500e-02
  0.00000000  0.25000000  0.25000000  1.562500e-02
  0.00000000  0.25000000  0.50000000  1.562500e-02
  0.00000000  0.25000000  0.75000000  1.562500e-02
  0.00000000  0.50000000  0.00000000  1.562500e-02
  0.00000000  0.50000000  0.25000000  1.562500e-02
  0.00000000  0.50000000  0.50000000  1.562500e-02
  0.00000000  0.50000000  0.75000000  1.562500e-02
  0.00000000  0.75000000  0.00000000  1.562500e-02
  0.00000000  0.75000000  0.25000000  1.562500e-02
  0.00000000  0.75000000  0.50000000  1.562500e-02
  0.00000000  0.75000000  0.75000000  1.562500e-02
  0.25000000  0.00000000  0.00000000  1.562500e-02
  0.25000000  0.00000000  0.25000000  1.562500e-02
  0.25000000  0.00000000  0.50000000  1.562500e-02
  0.25000000  0.00000000  0.75000000  1.562500e-02
  0.25000000  0.25000000  0.00000000  1.562500e-02
  0.25000000  0.25000000  0.25000000  1.562500e-02
  0.25000000  0.25000000  0.50000000  1.562500e-02
  0.25000000  0.25000000  0.75000000  1.562500e-02
  0.25000000  0.50000000  0.00000000  1.562500e-02
  0.25000000  0.50000000  0.25000000  1.562500e-02
  0.25000000  0.50000000  0.50000000  1.562500e-02
  0.25000000  0.50000000  0.75000000  1.562500e-02
  0.25000000  0.75000000  0.00000000  1.562500e-02
  0.25000000  0.75000000  0.25000000  1.562500e-02
  0.25000000  0.75000000  0.50000000  1.562500e-02
  0.25000000  0.75000000  0.75000000  1.562500e-02
  0.50000000  0.00000000  0.00000000  1.562500e-02
  0.50000000  0.00000000  0.25000000  1.562500e-02
  0.50000000  0.00000000  0.50000000  1.562500e-02
  0.50000000  0.00000000  0.75000000  1.562500e-02
  0.50000000  0.25000000  0.00000000  1.562500e-02
  0.50000000  0.25000000  0.25000000  1.562500e-02
  0.50000000  0.25000000  0.50000000  1.562500e-02
  0.50000000  0.25000000  0.75000000  1.562500e-02
  0.50000000  0.50000000  0.00000000  1.562500e-02
  0.50000000  0.50000000  0.25000000  1.562500e-02
  0.50000000  0.50000000  0.50000000  1.562500e-02
  0.50000000  0.50000000  0.75000000  1.562500e-02
  0.50000000  0.75000000  0.00000000  1.562500e-02
  0.50000000  0.75000000  0.25000000  1.562500e-02
  0.50000000  0.75000000  0.50000000  1.562500e-02
  0.50000000  0.75000000  0.75000000  1.562500e-02
  0.75000000  0.00000000  0.00000000  1.562500e-02
  0.75000000  0.00000000  0.25000000  1.562500e-02
  0.75000000  0.00000000  0.50000000  1.562500e-02
  0.75000000  0.00000000  0.75000000  1.562500e-02
  0.75000000  0.25000000  0.00000000  1.562500e-02
  0.75000000  0.25000000  0.25000000  1.562500e-02
  0.75000000  0.25000000  0.50000000  1.562500e-02
  0.75000000  0.25000000  0.75000000  1.562500e-02
  0.75000000  0.50000000  0.00000000  1.562500e-02
  0.75000000  0.50000000  0.25000000  1.562500e-02
  0.75000000  0.50000000  0.50000000  1.562500e-02
  0.75000000  0.50000000  0.75000000  1.562500e-02
  0.75000000  0.75000000  0.00000000  1.562500e-02
  0.75000000  0.75000000  0.25000000  1.562500e-02
  0.75000000  0.75000000  0.50000000  1.562500e-02
  0.75000000  0.75000000  0.75000000  1.562500e-02
end kpoints
