num_bands       =  60
num_wann        =  36

exclude_bands = 1-8

dis_froz_max = -2

dis_conv_tol = 1.e-10
dis_num_iter= 2000
dis_conv_window = 3

conv_window = 3
conv_tol = 1.e-10
num_iter = 60000

bands_plot = true
begin kpoint_path
G 0.0   0.0     0.0 M 0.0   0.5    0.0
M 0.0   0.5     0.0 K 0.3333   0.3333     0.0
K 0.3333   0.3333     0.0 G 0.0   0.0     0.0
end kpoint_path

! write_xyz = .true.
! write_hr  = .true.
! write_tb  = .true.

!wannier_plot = .true.
!wannier_plot_format = cube
!wannier_plot_supercell = 3

begin atoms_frac
Cr            0.3333333333        0.6666666667        0.0000000000
Cr            0.6666666667        0.3333333333        0.0000000000
I             0.0000000000        0.3541077360        0.0769313053
I             0.0000000000        0.6458922640       -0.0769312753
I             0.3541077360        0.3541077360       -0.0769312753
I             0.6458922640        0.6458922640        0.0769313053
I             0.3541077360        0.0000000000        0.0769313053
I             0.6458922640        0.0000000000       -0.0769312753
end atoms_frac

auto_projections = .true.

begin projections
!Cr: d,s
!I: s,p
end projections

begin unit_cell_cart
ang
6.8171434190    0.0000000000    0.0000000000
-3.4085717090    5.9038193820    0.0000000000
0.0000000000    0.0000000000   20.0783737530
end unit_cell_cart

mp_grid    =  6 6 1

begin kpoints
0.00000000  0.00000000  0.00000000  2.777778e-02
0.00000000  0.16666667  0.00000000  2.777778e-02
0.00000000  0.33333333  0.00000000  2.777778e-02
0.00000000  0.50000000  0.00000000  2.777778e-02
0.00000000  0.66666667  0.00000000  2.777778e-02
0.00000000  0.83333333  0.00000000  2.777778e-02
0.16666667  0.00000000  0.00000000  2.777778e-02
0.16666667  0.16666667  0.00000000  2.777778e-02
0.16666667  0.33333333  0.00000000  2.777778e-02
0.16666667  0.50000000  0.00000000  2.777778e-02
0.16666667  0.66666667  0.00000000  2.777778e-02
0.16666667  0.83333333  0.00000000  2.777778e-02
0.33333333  0.00000000  0.00000000  2.777778e-02
0.33333333  0.16666667  0.00000000  2.777778e-02
0.33333333  0.33333333  0.00000000  2.777778e-02
0.33333333  0.50000000  0.00000000  2.777778e-02
0.33333333  0.66666667  0.00000000  2.777778e-02
0.33333333  0.83333333  0.00000000  2.777778e-02
0.50000000  0.00000000  0.00000000  2.777778e-02
0.50000000  0.16666667  0.00000000  2.777778e-02
0.50000000  0.33333333  0.00000000  2.777778e-02
0.50000000  0.50000000  0.00000000  2.777778e-02
0.50000000  0.66666667  0.00000000  2.777778e-02
0.50000000  0.83333333  0.00000000  2.777778e-02
0.66666667  0.00000000  0.00000000  2.777778e-02
0.66666667  0.16666667  0.00000000  2.777778e-02
0.66666667  0.33333333  0.00000000  2.777778e-02
0.66666667  0.50000000  0.00000000  2.777778e-02
0.66666667  0.66666667  0.00000000  2.777778e-02
0.66666667  0.83333333  0.00000000  2.777778e-02
0.83333333  0.00000000  0.00000000  2.777778e-02
0.83333333  0.16666667  0.00000000  2.777778e-02
0.83333333  0.33333333  0.00000000  2.777778e-02
0.83333333  0.50000000  0.00000000  2.777778e-02
0.83333333  0.66666667  0.00000000  2.777778e-02
0.83333333  0.83333333  0.00000000  2.777778e-02
end kpoints
