&CONTROL
  calculation = 'bands'
  etot_conv_thr =   2.0000000000d-05
  forc_conv_thr =   1.0000000000d-04
  max_seconds =   4.1040000000d+04
  outdir = './out/'
  prefix = 'cubr2'
  pseudo_dir = '../../pseudo/'
  restart_mode = 'from_scratch'
  tprnfor = .true.
  tstress = .true.
  verbosity = 'high'
/
&SYSTEM
  degauss =   1.0000000000d-02
  ecutrho =   440.0
  ecutwfc =   55.0
  ibrav = 0
  nat = 3
  nbnd = 25
  noinv = .true.
  nosym = .true.
  ntyp = 2
  occupations = 'smearing'
  smearing = 'cold'
/
&ELECTRONS
  conv_thr =   4.0000000000d-10
  diago_full_acc = .true.
  electron_maxstep = 80
  mixing_beta =   4.0000000000d-01
  startingpot = 'file'
/
ATOMIC_SPECIES
Cu     55.85 cu_pbesol_v1.2.uspp.F.UPF
Br     79.90 br_pbesol_v1.4.uspp.F.UPF
ATOMIC_POSITIONS crystal
Cu  0.000000000000000   0.500000000000000   0.500000000000000 
Br  0.240000000000000   0.985000000000000   0.015000000000000 
Br  0.760000000000000   0.015000000000000   0.985000000000000
CELL_PARAMETERS angstrom
  7.140000000000000   0.000000000000000   0.000000000000000
  1.857036514247435   1.730000000000000  -3.072379433720994
 -1.857036514247435   1.730000000000000   3.072379433720994
K_POINTS crystal
         345
    0.000000    0.000000    0.000000     1.000000
    0.000000    0.006539    0.006539     1.000000
    0.000000    0.013078    0.013078     1.000000
    0.000000    0.019617    0.019617     1.000000
    0.000000    0.026157    0.026157     1.000000
    0.000000    0.032696    0.032696     1.000000
    0.000000    0.039235    0.039235     1.000000
    0.000000    0.045774    0.045774     1.000000
    0.000000    0.052313    0.052313     1.000000
    0.000000    0.058852    0.058852     1.000000
    0.000000    0.065391    0.065391     1.000000
    0.000000    0.071931    0.071931     1.000000
    0.000000    0.078470    0.078470     1.000000
    0.000000    0.085009    0.085009     1.000000
    0.000000    0.091548    0.091548     1.000000
    0.000000    0.098087    0.098087     1.000000
    0.000000    0.104626    0.104626     1.000000
    0.000000    0.111165    0.111165     1.000000
    0.000000    0.117704    0.117704     1.000000
    0.000000    0.124244    0.124244     1.000000
    0.000000    0.130783    0.130783     1.000000
    0.000000    0.137322    0.137322     1.000000
    0.000000    0.143861    0.143861     1.000000
    0.000000    0.150400    0.150400     1.000000
    0.000000    0.156939    0.156939     1.000000
    0.000000    0.163478    0.163478     1.000000
    0.000000    0.170018    0.170018     1.000000
    0.000000    0.176557    0.176557     1.000000
    0.000000    0.183096    0.183096     1.000000
    0.000000    0.189635    0.189635     1.000000
    0.000000    0.196174    0.196174     1.000000
    0.000000    0.202713    0.202713     1.000000
    0.000000    0.209252    0.209252     1.000000
    0.000000    0.215792    0.215792     1.000000
    0.000000    0.222331    0.222331     1.000000
    0.000000    0.228870    0.228870     1.000000
    0.000000    0.235409    0.235409     1.000000
    0.000000    0.241948    0.241948     1.000000
    0.000000    0.248487    0.248487     1.000000
    0.000000    0.255026    0.255026     1.000000
    0.000000    0.261566    0.261566     1.000000
    0.000000    0.268105    0.268105     1.000000
    0.000000    0.274644    0.274644     1.000000
    0.000000    0.281183    0.281183     1.000000
    0.000000    0.287722    0.287722     1.000000
    0.000000    0.294261    0.294261     1.000000
    0.000000    0.300800    0.300800     1.000000
    0.000000    0.307340    0.307340     1.000000
    0.000000    0.313879    0.313879     1.000000
    0.000000    0.320418    0.320418     1.000000
    0.000000    0.326957    0.326957     1.000000
   -1.000000   -0.326957    0.673043     1.000000
   -1.000000   -0.333612    0.666388     1.000000
   -1.000000   -0.340268    0.659732     1.000000
   -1.000000   -0.346923    0.653077     1.000000
   -1.000000   -0.353579    0.646421     1.000000
   -1.000000   -0.360234    0.639766     1.000000
   -1.000000   -0.366890    0.633110     1.000000
   -1.000000   -0.373545    0.626455     1.000000
   -1.000000   -0.380201    0.619799     1.000000
   -1.000000   -0.386856    0.613144     1.000000
   -1.000000   -0.393512    0.606488     1.000000
   -1.000000   -0.400167    0.599833     1.000000
   -1.000000   -0.406823    0.593177     1.000000
   -1.000000   -0.413478    0.586522     1.000000
   -1.000000   -0.420134    0.579866     1.000000
   -1.000000   -0.426789    0.573211     1.000000
   -1.000000   -0.433445    0.566555     1.000000
   -1.000000   -0.440100    0.559900     1.000000
   -1.000000   -0.446756    0.553244     1.000000
   -1.000000   -0.453411    0.546589     1.000000
   -1.000000   -0.460067    0.539933     1.000000
   -1.000000   -0.466722    0.533278     1.000000
   -1.000000   -0.473378    0.526622     1.000000
   -1.000000   -0.480033    0.519967     1.000000
   -1.000000   -0.486689    0.513311     1.000000
   -1.000000   -0.493344    0.506656     1.000000
   -1.000000   -0.500000    0.500000     1.000000
   -0.976190   -0.488095    0.488095     1.000000
   -0.952381   -0.476190    0.476190     1.000000
   -0.928571   -0.464286    0.464286     1.000000
   -0.904762   -0.452381    0.452381     1.000000
   -0.880952   -0.440476    0.440476     1.000000
   -0.857143   -0.428571    0.428571     1.000000
   -0.833333   -0.416667    0.416667     1.000000
   -0.809524   -0.404762    0.404762     1.000000
   -0.785714   -0.392857    0.392857     1.000000
   -0.761905   -0.380952    0.380952     1.000000
   -0.738095   -0.369048    0.369048     1.000000
   -0.714286   -0.357143    0.357143     1.000000
   -0.690476   -0.345238    0.345238     1.000000
   -0.666667   -0.333333    0.333333     1.000000
   -0.642857   -0.321429    0.321429     1.000000
   -0.619048   -0.309524    0.309524     1.000000
   -0.595238   -0.297619    0.297619     1.000000
   -0.571429   -0.285714    0.285714     1.000000
   -0.547619   -0.273810    0.273810     1.000000
   -0.523810   -0.261905    0.261905     1.000000
   -0.500000   -0.250000    0.250000     1.000000
   -0.476190   -0.238095    0.238095     1.000000
   -0.452381   -0.226190    0.226190     1.000000
   -0.428571   -0.214286    0.214286     1.000000
   -0.404762   -0.202381    0.202381     1.000000
   -0.380952   -0.190476    0.190476     1.000000
   -0.357143   -0.178571    0.178571     1.000000
   -0.333333   -0.166667    0.166667     1.000000
   -0.309524   -0.154762    0.154762     1.000000
   -0.285714   -0.142857    0.142857     1.000000
   -0.261905   -0.130952    0.130952     1.000000
   -0.238095   -0.119048    0.119048     1.000000
   -0.214286   -0.107143    0.107143     1.000000
   -0.190476   -0.095238    0.095238     1.000000
   -0.166667   -0.083333    0.083333     1.000000
   -0.142857   -0.071429    0.071429     1.000000
   -0.119048   -0.059524    0.059524     1.000000
   -0.095238   -0.047619    0.047619     1.000000
   -0.071429   -0.035714    0.035714     1.000000
   -0.047619   -0.023810    0.023810     1.000000
   -0.023810   -0.011905    0.011905     1.000000
    0.000000   -0.000000    0.000000     1.000000
   -0.013514   -0.013514    0.013514     1.000000
   -0.027027   -0.027027    0.027027     1.000000
   -0.040541   -0.040541    0.040541     1.000000
   -0.054054   -0.054054    0.054054     1.000000
   -0.067568   -0.067568    0.067568     1.000000
   -0.081081   -0.081081    0.081081     1.000000
   -0.094595   -0.094595    0.094595     1.000000
   -0.108108   -0.108108    0.108108     1.000000
   -0.121622   -0.121622    0.121622     1.000000
   -0.135135   -0.135135    0.135135     1.000000
   -0.148649   -0.148649    0.148649     1.000000
   -0.162162   -0.162162    0.162162     1.000000
   -0.175676   -0.175676    0.175676     1.000000
   -0.189189   -0.189189    0.189189     1.000000
   -0.202703   -0.202703    0.202703     1.000000
   -0.216216   -0.216216    0.216216     1.000000
   -0.229730   -0.229730    0.229730     1.000000
   -0.243243   -0.243243    0.243243     1.000000
   -0.256757   -0.256757    0.256757     1.000000
   -0.270270   -0.270270    0.270270     1.000000
   -0.283784   -0.283784    0.283784     1.000000
   -0.297297   -0.297297    0.297297     1.000000
   -0.310811   -0.310811    0.310811     1.000000
   -0.324324   -0.324324    0.324324     1.000000
   -0.337838   -0.337838    0.337838     1.000000
   -0.351351   -0.351351    0.351351     1.000000
   -0.364865   -0.364865    0.364865     1.000000
   -0.378378   -0.378378    0.378378     1.000000
   -0.391892   -0.391892    0.391892     1.000000
   -0.405405   -0.405405    0.405405     1.000000
   -0.418919   -0.418919    0.418919     1.000000
   -0.432432   -0.432432    0.432432     1.000000
   -0.445946   -0.445946    0.445946     1.000000
   -0.459459   -0.459459    0.459459     1.000000
   -0.472973   -0.472973    0.472973     1.000000
   -0.486486   -0.486486    0.486486     1.000000
   -0.500000   -0.500000    0.500000     1.000000
   -0.500000   -0.493376    0.506624     1.000000
   -0.500000   -0.486752    0.513248     1.000000
   -0.500000   -0.480128    0.519872     1.000000
   -0.500000   -0.473504    0.526496     1.000000
   -0.500000   -0.466880    0.533120     1.000000
   -0.500000   -0.460256    0.539744     1.000000
   -0.500000   -0.453632    0.546368     1.000000
   -0.500000   -0.447008    0.552992     1.000000
   -0.500000   -0.440384    0.559616     1.000000
   -0.500000   -0.433760    0.566240     1.000000
   -0.500000   -0.427136    0.572864     1.000000
   -0.500000   -0.420512    0.579488     1.000000
   -0.500000   -0.413888    0.586112     1.000000
   -0.500000   -0.407265    0.592735     1.000000
   -0.500000   -0.400641    0.599359     1.000000
   -0.500000   -0.394017    0.605983     1.000000
   -0.500000   -0.387393    0.612607     1.000000
   -0.500000   -0.380769    0.619231     1.000000
   -0.500000   -0.374145    0.625855     1.000000
   -0.500000   -0.367521    0.632479     1.000000
   -0.500000   -0.360897    0.639103     1.000000
   -0.500000   -0.354273    0.645727     1.000000
   -0.500000   -0.347649    0.652351     1.000000
   -0.500000   -0.341025    0.658975     1.000000
   -0.500000   -0.334401    0.665599     1.000000
   -0.500000   -0.327777    0.672223     1.000000
   -0.500000   -0.321153    0.678847     1.000000
   -0.500000   -0.314529    0.685471     1.000000
   -0.500000   -0.307905    0.692095     1.000000
   -0.500000   -0.301281    0.698719     1.000000
   -0.500000   -0.294657    0.705343     1.000000
   -0.500000   -0.288033    0.711967     1.000000
    0.500000    0.288033    0.288033     1.000000
    0.500000    0.281487    0.281487     1.000000
    0.500000    0.274941    0.274941     1.000000
    0.500000    0.268395    0.268395     1.000000
    0.500000    0.261848    0.261848     1.000000
    0.500000    0.255302    0.255302     1.000000
    0.500000    0.248756    0.248756     1.000000
    0.500000    0.242210    0.242210     1.000000
    0.500000    0.235663    0.235663     1.000000
    0.500000    0.229117    0.229117     1.000000
    0.500000    0.222571    0.222571     1.000000
    0.500000    0.216025    0.216025     1.000000
    0.500000    0.209479    0.209479     1.000000
    0.500000    0.202932    0.202932     1.000000
    0.500000    0.196386    0.196386     1.000000
    0.500000    0.189840    0.189840     1.000000
    0.500000    0.183294    0.183294     1.000000
    0.500000    0.176748    0.176748     1.000000
    0.500000    0.170201    0.170201     1.000000
    0.500000    0.163655    0.163655     1.000000
    0.500000    0.157109    0.157109     1.000000
    0.500000    0.150563    0.150563     1.000000
    0.500000    0.144017    0.144017     1.000000
    0.500000    0.137470    0.137470     1.000000
    0.500000    0.130924    0.130924     1.000000
    0.500000    0.124378    0.124378     1.000000
    0.500000    0.117832    0.117832     1.000000
    0.500000    0.111286    0.111286     1.000000
    0.500000    0.104739    0.104739     1.000000
    0.500000    0.098193    0.098193     1.000000
    0.500000    0.091647    0.091647     1.000000
    0.500000    0.085101    0.085101     1.000000
    0.500000    0.078554    0.078554     1.000000
    0.500000    0.072008    0.072008     1.000000
    0.500000    0.065462    0.065462     1.000000
    0.500000    0.058916    0.058916     1.000000
    0.500000    0.052370    0.052370     1.000000
    0.500000    0.045823    0.045823     1.000000
    0.500000    0.039277    0.039277     1.000000
    0.500000    0.032731    0.032731     1.000000
    0.500000    0.026185    0.026185     1.000000
    0.500000    0.019639    0.019639     1.000000
    0.500000    0.013092    0.013092     1.000000
    0.500000    0.006546    0.006546     1.000000
    0.500000    0.000000    0.000000     1.000000
    0.477273    0.000000   -0.000000     1.000000
    0.454545    0.000000    0.000000     1.000000
    0.431818    0.000000    0.000000     1.000000
    0.409091    0.000000    0.000000     1.000000
    0.386364    0.000000   -0.000000     1.000000
    0.363636    0.000000   -0.000000     1.000000
    0.340909    0.000000    0.000000     1.000000
    0.318182    0.000000    0.000000     1.000000
    0.295455    0.000000    0.000000     1.000000
    0.272727    0.000000    0.000000     1.000000
    0.250000    0.000000    0.000000     1.000000
    0.227273    0.000000   -0.000000     1.000000
    0.204545    0.000000   -0.000000     1.000000
    0.181818    0.000000    0.000000     1.000000
    0.159091    0.000000   -0.000000     1.000000
    0.136364   -0.000000    0.000000     1.000000
    0.113636   -0.000000    0.000000     1.000000
    0.090909    0.000000    0.000000     1.000000
    0.068182    0.000000   -0.000000     1.000000
    0.045455   -0.000000    0.000000     1.000000
    0.022727    0.000000   -0.000000     1.000000
    0.000000    0.000000    0.000000     1.000000
    0.000000   -0.000000    0.500000     1.000000
    0.000000   -0.000000    0.488636     1.000000
    0.000000    0.000000    0.477273     1.000000
    0.000000   -0.000000    0.465909     1.000000
    0.000000    0.000000    0.454545     1.000000
    0.000000   -0.000000    0.443182     1.000000
    0.000000   -0.000000    0.431818     1.000000
    0.000000    0.000000    0.420455     1.000000
    0.000000   -0.000000    0.409091     1.000000
    0.000000    0.000000    0.397727     1.000000
    0.000000   -0.000000    0.386364     1.000000
    0.000000   -0.000000    0.375000     1.000000
    0.000000    0.000000    0.363636     1.000000
    0.000000    0.000000    0.352273     1.000000
    0.000000    0.000000    0.340909     1.000000
    0.000000    0.000000    0.329545     1.000000
    0.000000   -0.000000    0.318182     1.000000
    0.000000   -0.000000    0.306818     1.000000
    0.000000    0.000000    0.295455     1.000000
    0.000000   -0.000000    0.284091     1.000000
    0.000000   -0.000000    0.272727     1.000000
    0.000000   -0.000000    0.261364     1.000000
    0.000000   -0.000000    0.250000     1.000000
    0.000000   -0.000000    0.238636     1.000000
    0.000000   -0.000000    0.227273     1.000000
    0.000000    0.000000    0.215909     1.000000
    0.000000   -0.000000    0.204545     1.000000
    0.000000   -0.000000    0.193182     1.000000
    0.000000    0.000000    0.181818     1.000000
    0.000000   -0.000000    0.170455     1.000000
    0.000000   -0.000000    0.159091     1.000000
    0.000000   -0.000000    0.147727     1.000000
    0.000000   -0.000000    0.136364     1.000000
    0.000000   -0.000000    0.125000     1.000000
    0.000000   -0.000000    0.113636     1.000000
    0.000000   -0.000000    0.102273     1.000000
    0.000000    0.000000    0.090909     1.000000
    0.000000   -0.000000    0.079545     1.000000
    0.000000   -0.000000    0.068182     1.000000
    0.000000   -0.000000    0.056818     1.000000
    0.000000   -0.000000    0.045455     1.000000
    0.000000   -0.000000    0.034091     1.000000
    0.000000   -0.000000    0.022727     1.000000
    0.000000   -0.000000    0.011364     1.000000
    0.000000    0.000000    0.000000     1.000000
   -0.011364    0.000000    0.011364     1.000000
   -0.022727    0.000000    0.022727     1.000000
   -0.034091    0.000000    0.034091     1.000000
   -0.045455    0.000000    0.045455     1.000000
   -0.056818    0.000000    0.056818     1.000000
   -0.068182    0.000000    0.068182     1.000000
   -0.079545   -0.000000    0.079545     1.000000
   -0.090909    0.000000    0.090909     1.000000
   -0.102273    0.000000    0.102273     1.000000
   -0.113636    0.000000    0.113636     1.000000
   -0.125000    0.000000    0.125000     1.000000
   -0.136364    0.000000    0.136364     1.000000
   -0.147727    0.000000    0.147727     1.000000
   -0.159091   -0.000000    0.159091     1.000000
   -0.170455   -0.000000    0.170455     1.000000
   -0.181818    0.000000    0.181818     1.000000
   -0.193182    0.000000    0.193182     1.000000
   -0.204545    0.000000    0.204545     1.000000
   -0.215909    0.000000    0.215909     1.000000
   -0.227273    0.000000    0.227273     1.000000
   -0.238636    0.000000    0.238636     1.000000
   -0.250000    0.000000    0.250000     1.000000
   -0.261364    0.000000    0.261364     1.000000
   -0.272727    0.000000    0.272727     1.000000
   -0.284091    0.000000    0.284091     1.000000
   -0.295455    0.000000    0.295455     1.000000
   -0.306818    0.000000    0.306818     1.000000
   -0.318182   -0.000000    0.318182     1.000000
   -0.329545    0.000000    0.329545     1.000000
   -0.340909   -0.000000    0.340909     1.000000
   -0.352273    0.000000    0.352273     1.000000
   -0.363636    0.000000    0.363636     1.000000
   -0.375000    0.000000    0.375000     1.000000
   -0.386364    0.000000    0.386364     1.000000
   -0.397727    0.000000    0.397727     1.000000
   -0.409091    0.000000    0.409091     1.000000
   -0.420455    0.000000    0.420455     1.000000
   -0.431818    0.000000    0.431818     1.000000
   -0.443182    0.000000    0.443182     1.000000
   -0.454545    0.000000    0.454545     1.000000
   -0.465909    0.000000    0.465909     1.000000
   -0.477273    0.000000    0.477273     1.000000
   -0.488636    0.000000    0.488636     1.000000
   -0.500000    0.000000    0.500000     1.000000
