&CONTROL
  calculation = 'scf'
  etot_conv_thr =   2.0000000000d-05
  forc_conv_thr =   1.0000000000d-04
  max_seconds =   4.1040000000d+04
  outdir = './out/'
  prefix = 'cubr2'
  pseudo_dir = '../../pseudo/'
  tprnfor = .true.
  tstress = .true.
  verbosity = 'high'
/
&SYSTEM
  degauss =   1.0000000000d-02
  ecutrho =   440.0
  ecutwfc =   55.0
  ibrav = 0
  nat = 3
  nosym = .false.
  ntyp = 2
  occupations = 'smearing'
  smearing = 'cold'
/
&ELECTRONS
  conv_thr =   4.0000000000d-10
  electron_maxstep = 80
  mixing_beta =   4.0000000000d-01
/
ATOMIC_SPECIES
Cu     55.85 cu_pbesol_v1.2.uspp.F.UPF
Br     79.90 br_pbesol_v1.4.uspp.F.UPF
ATOMIC_POSITIONS crystal
Cu  0.000000000000000   0.500000000000000   0.500000000000000 
Br  0.240000000000000   0.985000000000000   0.015000000000000 
Br  0.760000000000000   0.015000000000000   0.985000000000000
K_POINTS automatic
4 4 4 0 0 0
CELL_PARAMETERS angstrom
  7.140000000000000   0.000000000000000   0.000000000000000
  1.857036514247435   1.730000000000000  -3.072379433720994
 -1.857036514247435   1.730000000000000   3.072379433720994
