! Generated by DFTK.jl at 2022-09-02T09:45:08.815

num_wann             =   5
num_bands            =   15
num_iter             =   200
dis_win_max          =   19.0
dis_froz_max         =   0.1
dis_num_iter         =   300
dis_mix_ratio        =   1.0
wannier_plot_format  =   cube
wannier_plot_supercell =   5
write_xyz            =   true
translate_home_cell  =   true
wvfn_formatted = True
wannier_plot   = True

!!!!!!!!!!!!!!!!!!!! System


begin unit_cell_cart
bohr
  4.990767   0.000000   0.000000
 -2.495383   4.322131   0.000000
  0.000000   0.000000  18.897261
end unit_cell_cart

begin atoms_frac
C    0.000000   0.000000   0.000000
C    0.333333   0.666667   0.000000
end atoms_frac

!!!!!!!!!!!!!!!!!!!! k_points

mp_grid : 3 3 1

begin kpoints
0.00000000 0.00000000 0.00000000
0.33333333 0.00000000 0.00000000
0.33333333 0.33333333 0.00000000
-0.33333333 0.00000000 0.00000000
-0.33333333 -0.33333333 0.00000000
0.33333333 -0.33333333 0.00000000
-0.33333333 0.33333333 0.00000000
0.00000000 -0.33333333 0.00000000
0.00000000 0.33333333 0.00000000
end kpoints
