&BANDS
  prefix='Cu'
  outdir='./out/'
  filband='qe_bands.dat'
/
