conv_tol =   3.0000000000d-07
conv_window = 3
exclude_bands = 1-6
fermi_energy =  4.7613
mp_grid = 3, 3, 1
num_bands = 11
num_cg_steps = 200
num_iter = 4000
num_wann = 11
spn_formatted = .true.
wannier_plot = .true.
#wannier_plot_format = cube
wannier_plot_supercell = 3
wvfn_formatted = .true.

begin atoms_cart
ang
Mo         0.0000000000       0.0000000000       0.0000000000 
S         0.0000000000       1.8421191469      38.4380058273 
S         0.0000000000       1.8421191469       1.5620440727 
end atoms_cart

begin projections
Mo:d
S:p
end projections

begin unit_cell_cart
ang
      3.1906439561       0.0000000000       0.0000000000
     -1.5953219780       2.7631787204       0.0000000000
      0.0000000000       0.0000000000      10.0000000000
end unit_cell_cart

begin kpoint_path
G       0.0000000000       0.0000000000       0.0000000000    M       0.5000000000       0.0000000000       0.0000000000
M       0.5000000000       0.0000000000       0.0000000000    K       0.3333333333       0.3333333333       0.0000000000
K       0.3333333333       0.3333333333       0.0000000000    G       0.0000000000       0.0000000000       0.0000000000
G       0.0000000000       0.0000000000       0.0000000000    A       0.0000000000       0.0000000000       0.5000000000
A       0.0000000000       0.0000000000       0.5000000000    L       0.5000000000       0.0000000000       0.5000000000
L       0.5000000000       0.0000000000       0.5000000000    H       0.3333333333       0.3333333333       0.5000000000
H       0.3333333333       0.3333333333       0.5000000000    A       0.0000000000       0.0000000000       0.5000000000
end kpoint_path

begin kpoints
  0.00000000  0.00000000  0.00000000  1.111111e-01
  0.00000000  0.33333333  0.00000000  1.111111e-01
  0.00000000  0.66666667  0.00000000  1.111111e-01
  0.33333333  0.00000000  0.00000000  1.111111e-01
  0.33333333  0.33333333  0.00000000  1.111111e-01
  0.33333333  0.66666667  0.00000000  1.111111e-01
  0.66666667  0.00000000  0.00000000  1.111111e-01
  0.66666667  0.33333333  0.00000000  1.111111e-01
  0.66666667  0.66666667  0.00000000  1.111111e-01
end kpoints
