&inputpp
   outdir = 'out/'
   prefix = 'Fe'
   seedname = 'Fe_dn'
   spin_component = 'down'
   atom_proj = .true.
   atom_proj_exclude = 1   3 4 5
   write_mmn = .true.
   write_amn = .true.
   write_spn = .true.
   write_unk = .false.
/
