&control
  calculation = 'scf'
  restart_mode = 'from_scratch'
  pseudo_dir = '../../../pseudo/'
  outdir = 'out/'
  prefix = 'Fe'
/
&system
  ibrav = 3
  celldm(1) = 5.4235
  nat = 1
  ntyp = 1
  ecutwfc = 90
  ecutrho = 1080
  nspin = 2
  starting_magnetization(1) = -1
  occupations = 'smearing'
  smearing = 'cold'
  degauss = 0.02
/
&electrons
  conv_thr = 1.0e-8
/
ATOMIC_SPECIES
Fe 55.85 Fe.pbesol-spn-kjpaw_psl.0.2.1.UPF
ATOMIC_POSITIONS
Fe 0.0 0.0 0.0
K_POINTS (automatic)
6 6 6 0 0 0
