&CONTROL
  calculation = 'nscf'
  etot_conv_thr =   2.0000000000d-05
  forc_conv_thr =   1.0000000000d-04
  max_seconds =   4.1040000000d+04
  outdir = './out/'
  prefix = 'si2'
  pseudo_dir = './pseudo/'
  restart_mode = 'from_scratch'
  tprnfor = .true.
  tstress = .true.
  verbosity = 'high'
/
&SYSTEM
  degauss =   1.0000000000d-02
  ecutrho =   2.4000000000d+02
  ecutwfc =   3.0000000000d+01
  ibrav = 0
  nat = 2
  nbnd = 16
  noinv = .true.
  nosym = .true.
  ntyp = 1
  occupations = 'smearing'
  smearing = 'cold'
/
&ELECTRONS
  conv_thr =   4.0000000000d-10
  diago_full_acc = .true.
  electron_maxstep = 80
  mixing_beta =   4.0000000000d-01
  startingpot = 'file'
/
ATOMIC_SPECIES
Si     28.085 Si.pbe-n-rrkjus_psl.1.0.0.UPF
ATOMIC_POSITIONS angstrom
Si           0.0000000000       0.0000000000       2.7152650000 
Si           1.3576325000       4.0728975000       1.3576325000 
K_POINTS crystal
1331
        0.0000000000       0.0000000000       0.0000000000       0.0007513148
        0.0000000000       0.0000000000       0.0909090909       0.0007513148
        0.0000000000       0.0000000000       0.1818181818       0.0007513148
        0.0000000000       0.0000000000       0.2727272727       0.0007513148
        0.0000000000       0.0000000000       0.3636363636       0.0007513148
        0.0000000000       0.0000000000       0.4545454545       0.0007513148
        0.0000000000       0.0000000000       0.5454545455       0.0007513148
        0.0000000000       0.0000000000       0.6363636364       0.0007513148
        0.0000000000       0.0000000000       0.7272727273       0.0007513148
        0.0000000000       0.0000000000       0.8181818182       0.0007513148
        0.0000000000       0.0000000000       0.9090909091       0.0007513148
        0.0000000000       0.0909090909       0.0000000000       0.0007513148
        0.0000000000       0.0909090909       0.0909090909       0.0007513148
        0.0000000000       0.0909090909       0.1818181818       0.0007513148
        0.0000000000       0.0909090909       0.2727272727       0.0007513148
        0.0000000000       0.0909090909       0.3636363636       0.0007513148
        0.0000000000       0.0909090909       0.4545454545       0.0007513148
        0.0000000000       0.0909090909       0.5454545455       0.0007513148
        0.0000000000       0.0909090909       0.6363636364       0.0007513148
        0.0000000000       0.0909090909       0.7272727273       0.0007513148
        0.0000000000       0.0909090909       0.8181818182       0.0007513148
        0.0000000000       0.0909090909       0.9090909091       0.0007513148
        0.0000000000       0.1818181818       0.0000000000       0.0007513148
        0.0000000000       0.1818181818       0.0909090909       0.0007513148
        0.0000000000       0.1818181818       0.1818181818       0.0007513148
        0.0000000000       0.1818181818       0.2727272727       0.0007513148
        0.0000000000       0.1818181818       0.3636363636       0.0007513148
        0.0000000000       0.1818181818       0.4545454545       0.0007513148
        0.0000000000       0.1818181818       0.5454545455       0.0007513148
        0.0000000000       0.1818181818       0.6363636364       0.0007513148
        0.0000000000       0.1818181818       0.7272727273       0.0007513148
        0.0000000000       0.1818181818       0.8181818182       0.0007513148
        0.0000000000       0.1818181818       0.9090909091       0.0007513148
        0.0000000000       0.2727272727       0.0000000000       0.0007513148
        0.0000000000       0.2727272727       0.0909090909       0.0007513148
        0.0000000000       0.2727272727       0.1818181818       0.0007513148
        0.0000000000       0.2727272727       0.2727272727       0.0007513148
        0.0000000000       0.2727272727       0.3636363636       0.0007513148
        0.0000000000       0.2727272727       0.4545454545       0.0007513148
        0.0000000000       0.2727272727       0.5454545455       0.0007513148
        0.0000000000       0.2727272727       0.6363636364       0.0007513148
        0.0000000000       0.2727272727       0.7272727273       0.0007513148
        0.0000000000       0.2727272727       0.8181818182       0.0007513148
        0.0000000000       0.2727272727       0.9090909091       0.0007513148
        0.0000000000       0.3636363636       0.0000000000       0.0007513148
        0.0000000000       0.3636363636       0.0909090909       0.0007513148
        0.0000000000       0.3636363636       0.1818181818       0.0007513148
        0.0000000000       0.3636363636       0.2727272727       0.0007513148
        0.0000000000       0.3636363636       0.3636363636       0.0007513148
        0.0000000000       0.3636363636       0.4545454545       0.0007513148
        0.0000000000       0.3636363636       0.5454545455       0.0007513148
        0.0000000000       0.3636363636       0.6363636364       0.0007513148
        0.0000000000       0.3636363636       0.7272727273       0.0007513148
        0.0000000000       0.3636363636       0.8181818182       0.0007513148
        0.0000000000       0.3636363636       0.9090909091       0.0007513148
        0.0000000000       0.4545454545       0.0000000000       0.0007513148
        0.0000000000       0.4545454545       0.0909090909       0.0007513148
        0.0000000000       0.4545454545       0.1818181818       0.0007513148
        0.0000000000       0.4545454545       0.2727272727       0.0007513148
        0.0000000000       0.4545454545       0.3636363636       0.0007513148
        0.0000000000       0.4545454545       0.4545454545       0.0007513148
        0.0000000000       0.4545454545       0.5454545455       0.0007513148
        0.0000000000       0.4545454545       0.6363636364       0.0007513148
        0.0000000000       0.4545454545       0.7272727273       0.0007513148
        0.0000000000       0.4545454545       0.8181818182       0.0007513148
        0.0000000000       0.4545454545       0.9090909091       0.0007513148
        0.0000000000       0.5454545455       0.0000000000       0.0007513148
        0.0000000000       0.5454545455       0.0909090909       0.0007513148
        0.0000000000       0.5454545455       0.1818181818       0.0007513148
        0.0000000000       0.5454545455       0.2727272727       0.0007513148
        0.0000000000       0.5454545455       0.3636363636       0.0007513148
        0.0000000000       0.5454545455       0.4545454545       0.0007513148
        0.0000000000       0.5454545455       0.5454545455       0.0007513148
        0.0000000000       0.5454545455       0.6363636364       0.0007513148
        0.0000000000       0.5454545455       0.7272727273       0.0007513148
        0.0000000000       0.5454545455       0.8181818182       0.0007513148
        0.0000000000       0.5454545455       0.9090909091       0.0007513148
        0.0000000000       0.6363636364       0.0000000000       0.0007513148
        0.0000000000       0.6363636364       0.0909090909       0.0007513148
        0.0000000000       0.6363636364       0.1818181818       0.0007513148
        0.0000000000       0.6363636364       0.2727272727       0.0007513148
        0.0000000000       0.6363636364       0.3636363636       0.0007513148
        0.0000000000       0.6363636364       0.4545454545       0.0007513148
        0.0000000000       0.6363636364       0.5454545455       0.0007513148
        0.0000000000       0.6363636364       0.6363636364       0.0007513148
        0.0000000000       0.6363636364       0.7272727273       0.0007513148
        0.0000000000       0.6363636364       0.8181818182       0.0007513148
        0.0000000000       0.6363636364       0.9090909091       0.0007513148
        0.0000000000       0.7272727273       0.0000000000       0.0007513148
        0.0000000000       0.7272727273       0.0909090909       0.0007513148
        0.0000000000       0.7272727273       0.1818181818       0.0007513148
        0.0000000000       0.7272727273       0.2727272727       0.0007513148
        0.0000000000       0.7272727273       0.3636363636       0.0007513148
        0.0000000000       0.7272727273       0.4545454545       0.0007513148
        0.0000000000       0.7272727273       0.5454545455       0.0007513148
        0.0000000000       0.7272727273       0.6363636364       0.0007513148
        0.0000000000       0.7272727273       0.7272727273       0.0007513148
        0.0000000000       0.7272727273       0.8181818182       0.0007513148
        0.0000000000       0.7272727273       0.9090909091       0.0007513148
        0.0000000000       0.8181818182       0.0000000000       0.0007513148
        0.0000000000       0.8181818182       0.0909090909       0.0007513148
        0.0000000000       0.8181818182       0.1818181818       0.0007513148
        0.0000000000       0.8181818182       0.2727272727       0.0007513148
        0.0000000000       0.8181818182       0.3636363636       0.0007513148
        0.0000000000       0.8181818182       0.4545454545       0.0007513148
        0.0000000000       0.8181818182       0.5454545455       0.0007513148
        0.0000000000       0.8181818182       0.6363636364       0.0007513148
        0.0000000000       0.8181818182       0.7272727273       0.0007513148
        0.0000000000       0.8181818182       0.8181818182       0.0007513148
        0.0000000000       0.8181818182       0.9090909091       0.0007513148
        0.0000000000       0.9090909091       0.0000000000       0.0007513148
        0.0000000000       0.9090909091       0.0909090909       0.0007513148
        0.0000000000       0.9090909091       0.1818181818       0.0007513148
        0.0000000000       0.9090909091       0.2727272727       0.0007513148
        0.0000000000       0.9090909091       0.3636363636       0.0007513148
        0.0000000000       0.9090909091       0.4545454545       0.0007513148
        0.0000000000       0.9090909091       0.5454545455       0.0007513148
        0.0000000000       0.9090909091       0.6363636364       0.0007513148
        0.0000000000       0.9090909091       0.7272727273       0.0007513148
        0.0000000000       0.9090909091       0.8181818182       0.0007513148
        0.0000000000       0.9090909091       0.9090909091       0.0007513148
        0.0909090909       0.0000000000       0.0000000000       0.0007513148
        0.0909090909       0.0000000000       0.0909090909       0.0007513148
        0.0909090909       0.0000000000       0.1818181818       0.0007513148
        0.0909090909       0.0000000000       0.2727272727       0.0007513148
        0.0909090909       0.0000000000       0.3636363636       0.0007513148
        0.0909090909       0.0000000000       0.4545454545       0.0007513148
        0.0909090909       0.0000000000       0.5454545455       0.0007513148
        0.0909090909       0.0000000000       0.6363636364       0.0007513148
        0.0909090909       0.0000000000       0.7272727273       0.0007513148
        0.0909090909       0.0000000000       0.8181818182       0.0007513148
        0.0909090909       0.0000000000       0.9090909091       0.0007513148
        0.0909090909       0.0909090909       0.0000000000       0.0007513148
        0.0909090909       0.0909090909       0.0909090909       0.0007513148
        0.0909090909       0.0909090909       0.1818181818       0.0007513148
        0.0909090909       0.0909090909       0.2727272727       0.0007513148
        0.0909090909       0.0909090909       0.3636363636       0.0007513148
        0.0909090909       0.0909090909       0.4545454545       0.0007513148
        0.0909090909       0.0909090909       0.5454545455       0.0007513148
        0.0909090909       0.0909090909       0.6363636364       0.0007513148
        0.0909090909       0.0909090909       0.7272727273       0.0007513148
        0.0909090909       0.0909090909       0.8181818182       0.0007513148
        0.0909090909       0.0909090909       0.9090909091       0.0007513148
        0.0909090909       0.1818181818       0.0000000000       0.0007513148
        0.0909090909       0.1818181818       0.0909090909       0.0007513148
        0.0909090909       0.1818181818       0.1818181818       0.0007513148
        0.0909090909       0.1818181818       0.2727272727       0.0007513148
        0.0909090909       0.1818181818       0.3636363636       0.0007513148
        0.0909090909       0.1818181818       0.4545454545       0.0007513148
        0.0909090909       0.1818181818       0.5454545455       0.0007513148
        0.0909090909       0.1818181818       0.6363636364       0.0007513148
        0.0909090909       0.1818181818       0.7272727273       0.0007513148
        0.0909090909       0.1818181818       0.8181818182       0.0007513148
        0.0909090909       0.1818181818       0.9090909091       0.0007513148
        0.0909090909       0.2727272727       0.0000000000       0.0007513148
        0.0909090909       0.2727272727       0.0909090909       0.0007513148
        0.0909090909       0.2727272727       0.1818181818       0.0007513148
        0.0909090909       0.2727272727       0.2727272727       0.0007513148
        0.0909090909       0.2727272727       0.3636363636       0.0007513148
        0.0909090909       0.2727272727       0.4545454545       0.0007513148
        0.0909090909       0.2727272727       0.5454545455       0.0007513148
        0.0909090909       0.2727272727       0.6363636364       0.0007513148
        0.0909090909       0.2727272727       0.7272727273       0.0007513148
        0.0909090909       0.2727272727       0.8181818182       0.0007513148
        0.0909090909       0.2727272727       0.9090909091       0.0007513148
        0.0909090909       0.3636363636       0.0000000000       0.0007513148
        0.0909090909       0.3636363636       0.0909090909       0.0007513148
        0.0909090909       0.3636363636       0.1818181818       0.0007513148
        0.0909090909       0.3636363636       0.2727272727       0.0007513148
        0.0909090909       0.3636363636       0.3636363636       0.0007513148
        0.0909090909       0.3636363636       0.4545454545       0.0007513148
        0.0909090909       0.3636363636       0.5454545455       0.0007513148
        0.0909090909       0.3636363636       0.6363636364       0.0007513148
        0.0909090909       0.3636363636       0.7272727273       0.0007513148
        0.0909090909       0.3636363636       0.8181818182       0.0007513148
        0.0909090909       0.3636363636       0.9090909091       0.0007513148
        0.0909090909       0.4545454545       0.0000000000       0.0007513148
        0.0909090909       0.4545454545       0.0909090909       0.0007513148
        0.0909090909       0.4545454545       0.1818181818       0.0007513148
        0.0909090909       0.4545454545       0.2727272727       0.0007513148
        0.0909090909       0.4545454545       0.3636363636       0.0007513148
        0.0909090909       0.4545454545       0.4545454545       0.0007513148
        0.0909090909       0.4545454545       0.5454545455       0.0007513148
        0.0909090909       0.4545454545       0.6363636364       0.0007513148
        0.0909090909       0.4545454545       0.7272727273       0.0007513148
        0.0909090909       0.4545454545       0.8181818182       0.0007513148
        0.0909090909       0.4545454545       0.9090909091       0.0007513148
        0.0909090909       0.5454545455       0.0000000000       0.0007513148
        0.0909090909       0.5454545455       0.0909090909       0.0007513148
        0.0909090909       0.5454545455       0.1818181818       0.0007513148
        0.0909090909       0.5454545455       0.2727272727       0.0007513148
        0.0909090909       0.5454545455       0.3636363636       0.0007513148
        0.0909090909       0.5454545455       0.4545454545       0.0007513148
        0.0909090909       0.5454545455       0.5454545455       0.0007513148
        0.0909090909       0.5454545455       0.6363636364       0.0007513148
        0.0909090909       0.5454545455       0.7272727273       0.0007513148
        0.0909090909       0.5454545455       0.8181818182       0.0007513148
        0.0909090909       0.5454545455       0.9090909091       0.0007513148
        0.0909090909       0.6363636364       0.0000000000       0.0007513148
        0.0909090909       0.6363636364       0.0909090909       0.0007513148
        0.0909090909       0.6363636364       0.1818181818       0.0007513148
        0.0909090909       0.6363636364       0.2727272727       0.0007513148
        0.0909090909       0.6363636364       0.3636363636       0.0007513148
        0.0909090909       0.6363636364       0.4545454545       0.0007513148
        0.0909090909       0.6363636364       0.5454545455       0.0007513148
        0.0909090909       0.6363636364       0.6363636364       0.0007513148
        0.0909090909       0.6363636364       0.7272727273       0.0007513148
        0.0909090909       0.6363636364       0.8181818182       0.0007513148
        0.0909090909       0.6363636364       0.9090909091       0.0007513148
        0.0909090909       0.7272727273       0.0000000000       0.0007513148
        0.0909090909       0.7272727273       0.0909090909       0.0007513148
        0.0909090909       0.7272727273       0.1818181818       0.0007513148
        0.0909090909       0.7272727273       0.2727272727       0.0007513148
        0.0909090909       0.7272727273       0.3636363636       0.0007513148
        0.0909090909       0.7272727273       0.4545454545       0.0007513148
        0.0909090909       0.7272727273       0.5454545455       0.0007513148
        0.0909090909       0.7272727273       0.6363636364       0.0007513148
        0.0909090909       0.7272727273       0.7272727273       0.0007513148
        0.0909090909       0.7272727273       0.8181818182       0.0007513148
        0.0909090909       0.7272727273       0.9090909091       0.0007513148
        0.0909090909       0.8181818182       0.0000000000       0.0007513148
        0.0909090909       0.8181818182       0.0909090909       0.0007513148
        0.0909090909       0.8181818182       0.1818181818       0.0007513148
        0.0909090909       0.8181818182       0.2727272727       0.0007513148
        0.0909090909       0.8181818182       0.3636363636       0.0007513148
        0.0909090909       0.8181818182       0.4545454545       0.0007513148
        0.0909090909       0.8181818182       0.5454545455       0.0007513148
        0.0909090909       0.8181818182       0.6363636364       0.0007513148
        0.0909090909       0.8181818182       0.7272727273       0.0007513148
        0.0909090909       0.8181818182       0.8181818182       0.0007513148
        0.0909090909       0.8181818182       0.9090909091       0.0007513148
        0.0909090909       0.9090909091       0.0000000000       0.0007513148
        0.0909090909       0.9090909091       0.0909090909       0.0007513148
        0.0909090909       0.9090909091       0.1818181818       0.0007513148
        0.0909090909       0.9090909091       0.2727272727       0.0007513148
        0.0909090909       0.9090909091       0.3636363636       0.0007513148
        0.0909090909       0.9090909091       0.4545454545       0.0007513148
        0.0909090909       0.9090909091       0.5454545455       0.0007513148
        0.0909090909       0.9090909091       0.6363636364       0.0007513148
        0.0909090909       0.9090909091       0.7272727273       0.0007513148
        0.0909090909       0.9090909091       0.8181818182       0.0007513148
        0.0909090909       0.9090909091       0.9090909091       0.0007513148
        0.1818181818       0.0000000000       0.0000000000       0.0007513148
        0.1818181818       0.0000000000       0.0909090909       0.0007513148
        0.1818181818       0.0000000000       0.1818181818       0.0007513148
        0.1818181818       0.0000000000       0.2727272727       0.0007513148
        0.1818181818       0.0000000000       0.3636363636       0.0007513148
        0.1818181818       0.0000000000       0.4545454545       0.0007513148
        0.1818181818       0.0000000000       0.5454545455       0.0007513148
        0.1818181818       0.0000000000       0.6363636364       0.0007513148
        0.1818181818       0.0000000000       0.7272727273       0.0007513148
        0.1818181818       0.0000000000       0.8181818182       0.0007513148
        0.1818181818       0.0000000000       0.9090909091       0.0007513148
        0.1818181818       0.0909090909       0.0000000000       0.0007513148
        0.1818181818       0.0909090909       0.0909090909       0.0007513148
        0.1818181818       0.0909090909       0.1818181818       0.0007513148
        0.1818181818       0.0909090909       0.2727272727       0.0007513148
        0.1818181818       0.0909090909       0.3636363636       0.0007513148
        0.1818181818       0.0909090909       0.4545454545       0.0007513148
        0.1818181818       0.0909090909       0.5454545455       0.0007513148
        0.1818181818       0.0909090909       0.6363636364       0.0007513148
        0.1818181818       0.0909090909       0.7272727273       0.0007513148
        0.1818181818       0.0909090909       0.8181818182       0.0007513148
        0.1818181818       0.0909090909       0.9090909091       0.0007513148
        0.1818181818       0.1818181818       0.0000000000       0.0007513148
        0.1818181818       0.1818181818       0.0909090909       0.0007513148
        0.1818181818       0.1818181818       0.1818181818       0.0007513148
        0.1818181818       0.1818181818       0.2727272727       0.0007513148
        0.1818181818       0.1818181818       0.3636363636       0.0007513148
        0.1818181818       0.1818181818       0.4545454545       0.0007513148
        0.1818181818       0.1818181818       0.5454545455       0.0007513148
        0.1818181818       0.1818181818       0.6363636364       0.0007513148
        0.1818181818       0.1818181818       0.7272727273       0.0007513148
        0.1818181818       0.1818181818       0.8181818182       0.0007513148
        0.1818181818       0.1818181818       0.9090909091       0.0007513148
        0.1818181818       0.2727272727       0.0000000000       0.0007513148
        0.1818181818       0.2727272727       0.0909090909       0.0007513148
        0.1818181818       0.2727272727       0.1818181818       0.0007513148
        0.1818181818       0.2727272727       0.2727272727       0.0007513148
        0.1818181818       0.2727272727       0.3636363636       0.0007513148
        0.1818181818       0.2727272727       0.4545454545       0.0007513148
        0.1818181818       0.2727272727       0.5454545455       0.0007513148
        0.1818181818       0.2727272727       0.6363636364       0.0007513148
        0.1818181818       0.2727272727       0.7272727273       0.0007513148
        0.1818181818       0.2727272727       0.8181818182       0.0007513148
        0.1818181818       0.2727272727       0.9090909091       0.0007513148
        0.1818181818       0.3636363636       0.0000000000       0.0007513148
        0.1818181818       0.3636363636       0.0909090909       0.0007513148
        0.1818181818       0.3636363636       0.1818181818       0.0007513148
        0.1818181818       0.3636363636       0.2727272727       0.0007513148
        0.1818181818       0.3636363636       0.3636363636       0.0007513148
        0.1818181818       0.3636363636       0.4545454545       0.0007513148
        0.1818181818       0.3636363636       0.5454545455       0.0007513148
        0.1818181818       0.3636363636       0.6363636364       0.0007513148
        0.1818181818       0.3636363636       0.7272727273       0.0007513148
        0.1818181818       0.3636363636       0.8181818182       0.0007513148
        0.1818181818       0.3636363636       0.9090909091       0.0007513148
        0.1818181818       0.4545454545       0.0000000000       0.0007513148
        0.1818181818       0.4545454545       0.0909090909       0.0007513148
        0.1818181818       0.4545454545       0.1818181818       0.0007513148
        0.1818181818       0.4545454545       0.2727272727       0.0007513148
        0.1818181818       0.4545454545       0.3636363636       0.0007513148
        0.1818181818       0.4545454545       0.4545454545       0.0007513148
        0.1818181818       0.4545454545       0.5454545455       0.0007513148
        0.1818181818       0.4545454545       0.6363636364       0.0007513148
        0.1818181818       0.4545454545       0.7272727273       0.0007513148
        0.1818181818       0.4545454545       0.8181818182       0.0007513148
        0.1818181818       0.4545454545       0.9090909091       0.0007513148
        0.1818181818       0.5454545455       0.0000000000       0.0007513148
        0.1818181818       0.5454545455       0.0909090909       0.0007513148
        0.1818181818       0.5454545455       0.1818181818       0.0007513148
        0.1818181818       0.5454545455       0.2727272727       0.0007513148
        0.1818181818       0.5454545455       0.3636363636       0.0007513148
        0.1818181818       0.5454545455       0.4545454545       0.0007513148
        0.1818181818       0.5454545455       0.5454545455       0.0007513148
        0.1818181818       0.5454545455       0.6363636364       0.0007513148
        0.1818181818       0.5454545455       0.7272727273       0.0007513148
        0.1818181818       0.5454545455       0.8181818182       0.0007513148
        0.1818181818       0.5454545455       0.9090909091       0.0007513148
        0.1818181818       0.6363636364       0.0000000000       0.0007513148
        0.1818181818       0.6363636364       0.0909090909       0.0007513148
        0.1818181818       0.6363636364       0.1818181818       0.0007513148
        0.1818181818       0.6363636364       0.2727272727       0.0007513148
        0.1818181818       0.6363636364       0.3636363636       0.0007513148
        0.1818181818       0.6363636364       0.4545454545       0.0007513148
        0.1818181818       0.6363636364       0.5454545455       0.0007513148
        0.1818181818       0.6363636364       0.6363636364       0.0007513148
        0.1818181818       0.6363636364       0.7272727273       0.0007513148
        0.1818181818       0.6363636364       0.8181818182       0.0007513148
        0.1818181818       0.6363636364       0.9090909091       0.0007513148
        0.1818181818       0.7272727273       0.0000000000       0.0007513148
        0.1818181818       0.7272727273       0.0909090909       0.0007513148
        0.1818181818       0.7272727273       0.1818181818       0.0007513148
        0.1818181818       0.7272727273       0.2727272727       0.0007513148
        0.1818181818       0.7272727273       0.3636363636       0.0007513148
        0.1818181818       0.7272727273       0.4545454545       0.0007513148
        0.1818181818       0.7272727273       0.5454545455       0.0007513148
        0.1818181818       0.7272727273       0.6363636364       0.0007513148
        0.1818181818       0.7272727273       0.7272727273       0.0007513148
        0.1818181818       0.7272727273       0.8181818182       0.0007513148
        0.1818181818       0.7272727273       0.9090909091       0.0007513148
        0.1818181818       0.8181818182       0.0000000000       0.0007513148
        0.1818181818       0.8181818182       0.0909090909       0.0007513148
        0.1818181818       0.8181818182       0.1818181818       0.0007513148
        0.1818181818       0.8181818182       0.2727272727       0.0007513148
        0.1818181818       0.8181818182       0.3636363636       0.0007513148
        0.1818181818       0.8181818182       0.4545454545       0.0007513148
        0.1818181818       0.8181818182       0.5454545455       0.0007513148
        0.1818181818       0.8181818182       0.6363636364       0.0007513148
        0.1818181818       0.8181818182       0.7272727273       0.0007513148
        0.1818181818       0.8181818182       0.8181818182       0.0007513148
        0.1818181818       0.8181818182       0.9090909091       0.0007513148
        0.1818181818       0.9090909091       0.0000000000       0.0007513148
        0.1818181818       0.9090909091       0.0909090909       0.0007513148
        0.1818181818       0.9090909091       0.1818181818       0.0007513148
        0.1818181818       0.9090909091       0.2727272727       0.0007513148
        0.1818181818       0.9090909091       0.3636363636       0.0007513148
        0.1818181818       0.9090909091       0.4545454545       0.0007513148
        0.1818181818       0.9090909091       0.5454545455       0.0007513148
        0.1818181818       0.9090909091       0.6363636364       0.0007513148
        0.1818181818       0.9090909091       0.7272727273       0.0007513148
        0.1818181818       0.9090909091       0.8181818182       0.0007513148
        0.1818181818       0.9090909091       0.9090909091       0.0007513148
        0.2727272727       0.0000000000       0.0000000000       0.0007513148
        0.2727272727       0.0000000000       0.0909090909       0.0007513148
        0.2727272727       0.0000000000       0.1818181818       0.0007513148
        0.2727272727       0.0000000000       0.2727272727       0.0007513148
        0.2727272727       0.0000000000       0.3636363636       0.0007513148
        0.2727272727       0.0000000000       0.4545454545       0.0007513148
        0.2727272727       0.0000000000       0.5454545455       0.0007513148
        0.2727272727       0.0000000000       0.6363636364       0.0007513148
        0.2727272727       0.0000000000       0.7272727273       0.0007513148