&control
  calculation = 'nscf'
  restart_mode = 'from_scratch'
  pseudo_dir = '../../../pseudo/'
  outdir = 'out/'
  prefix = 'Fe'
/
&system
  ibrav = 3
  celldm(1) = 5.4235
  nat = 1
  ntyp = 1
  ecutwfc = 90
  ecutrho = 1080
  lspinorb = .true.
  noncolin = .true.
  starting_magnetization(1) = -1
  nbnd = 30
  occupations = 'smearing'
  smearing = 'cold'
  degauss = 0.02
  nosym = .true.
/
&electrons
  ! startingwfc = 'random'
  ! diagonalization = 'cg'
  conv_thr = 1.0e-10
/
ATOMIC_SPECIES
Fe 55.85 Fe.pbesol-spn-kjpaw_psl.0.2.1.UPF
ATOMIC_POSITIONS
Fe 0.0 0.0 0.0
K_POINTS crystal
216
  0.00000000  0.00000000  0.00000000  4.629630e-03
  0.00000000  0.00000000  0.16666667  4.629630e-03
  0.00000000  0.00000000  0.33333333  4.629630e-03
  0.00000000  0.00000000  0.50000000  4.629630e-03
  0.00000000  0.00000000  0.66666667  4.629630e-03
  0.00000000  0.00000000  0.83333333  4.629630e-03
  0.00000000  0.16666667  0.00000000  4.629630e-03
  0.00000000  0.16666667  0.16666667  4.629630e-03
  0.00000000  0.16666667  0.33333333  4.629630e-03
  0.00000000  0.16666667  0.50000000  4.629630e-03
  0.00000000  0.16666667  0.66666667  4.629630e-03
  0.00000000  0.16666667  0.83333333  4.629630e-03
  0.00000000  0.33333333  0.00000000  4.629630e-03
  0.00000000  0.33333333  0.16666667  4.629630e-03
  0.00000000  0.33333333  0.33333333  4.629630e-03
  0.00000000  0.33333333  0.50000000  4.629630e-03
  0.00000000  0.33333333  0.66666667  4.629630e-03
  0.00000000  0.33333333  0.83333333  4.629630e-03
  0.00000000  0.50000000  0.00000000  4.629630e-03
  0.00000000  0.50000000  0.16666667  4.629630e-03
  0.00000000  0.50000000  0.33333333  4.629630e-03
  0.00000000  0.50000000  0.50000000  4.629630e-03
  0.00000000  0.50000000  0.66666667  4.629630e-03
  0.00000000  0.50000000  0.83333333  4.629630e-03
  0.00000000  0.66666667  0.00000000  4.629630e-03
  0.00000000  0.66666667  0.16666667  4.629630e-03
  0.00000000  0.66666667  0.33333333  4.629630e-03
  0.00000000  0.66666667  0.50000000  4.629630e-03
  0.00000000  0.66666667  0.66666667  4.629630e-03
  0.00000000  0.66666667  0.83333333  4.629630e-03
  0.00000000  0.83333333  0.00000000  4.629630e-03
  0.00000000  0.83333333  0.16666667  4.629630e-03
  0.00000000  0.83333333  0.33333333  4.629630e-03
  0.00000000  0.83333333  0.50000000  4.629630e-03
  0.00000000  0.83333333  0.66666667  4.629630e-03
  0.00000000  0.83333333  0.83333333  4.629630e-03
  0.16666667  0.00000000  0.00000000  4.629630e-03
  0.16666667  0.00000000  0.16666667  4.629630e-03
  0.16666667  0.00000000  0.33333333  4.629630e-03
  0.16666667  0.00000000  0.50000000  4.629630e-03
  0.16666667  0.00000000  0.66666667  4.629630e-03
  0.16666667  0.00000000  0.83333333  4.629630e-03
  0.16666667  0.16666667  0.00000000  4.629630e-03
  0.16666667  0.16666667  0.16666667  4.629630e-03
  0.16666667  0.16666667  0.33333333  4.629630e-03
  0.16666667  0.16666667  0.50000000  4.629630e-03
  0.16666667  0.16666667  0.66666667  4.629630e-03
  0.16666667  0.16666667  0.83333333  4.629630e-03
  0.16666667  0.33333333  0.00000000  4.629630e-03
  0.16666667  0.33333333  0.16666667  4.629630e-03
  0.16666667  0.33333333  0.33333333  4.629630e-03
  0.16666667  0.33333333  0.50000000  4.629630e-03
  0.16666667  0.33333333  0.66666667  4.629630e-03
  0.16666667  0.33333333  0.83333333  4.629630e-03
  0.16666667  0.50000000  0.00000000  4.629630e-03
  0.16666667  0.50000000  0.16666667  4.629630e-03
  0.16666667  0.50000000  0.33333333  4.629630e-03
  0.16666667  0.50000000  0.50000000  4.629630e-03
  0.16666667  0.50000000  0.66666667  4.629630e-03
  0.16666667  0.50000000  0.83333333  4.629630e-03
  0.16666667  0.66666667  0.00000000  4.629630e-03
  0.16666667  0.66666667  0.16666667  4.629630e-03
  0.16666667  0.66666667  0.33333333  4.629630e-03
  0.16666667  0.66666667  0.50000000  4.629630e-03
  0.16666667  0.66666667  0.66666667  4.629630e-03
  0.16666667  0.66666667  0.83333333  4.629630e-03
  0.16666667  0.83333333  0.00000000  4.629630e-03
  0.16666667  0.83333333  0.16666667  4.629630e-03
  0.16666667  0.83333333  0.33333333  4.629630e-03
  0.16666667  0.83333333  0.50000000  4.629630e-03
  0.16666667  0.83333333  0.66666667  4.629630e-03
  0.16666667  0.83333333  0.83333333  4.629630e-03
  0.33333333  0.00000000  0.00000000  4.629630e-03
  0.33333333  0.00000000  0.16666667  4.629630e-03
  0.33333333  0.00000000  0.33333333  4.629630e-03
  0.33333333  0.00000000  0.50000000  4.629630e-03
  0.33333333  0.00000000  0.66666667  4.629630e-03
  0.33333333  0.00000000  0.83333333  4.629630e-03
  0.33333333  0.16666667  0.00000000  4.629630e-03
  0.33333333  0.16666667  0.16666667  4.629630e-03
  0.33333333  0.16666667  0.33333333  4.629630e-03
  0.33333333  0.16666667  0.50000000  4.629630e-03
  0.33333333  0.16666667  0.66666667  4.629630e-03
  0.33333333  0.16666667  0.83333333  4.629630e-03
  0.33333333  0.33333333  0.00000000  4.629630e-03
  0.33333333  0.33333333  0.16666667  4.629630e-03
  0.33333333  0.33333333  0.33333333  4.629630e-03
  0.33333333  0.33333333  0.50000000  4.629630e-03
  0.33333333  0.33333333  0.66666667  4.629630e-03
  0.33333333  0.33333333  0.83333333  4.629630e-03
  0.33333333  0.50000000  0.00000000  4.629630e-03
  0.33333333  0.50000000  0.16666667  4.629630e-03
  0.33333333  0.50000000  0.33333333  4.629630e-03
  0.33333333  0.50000000  0.50000000  4.629630e-03
  0.33333333  0.50000000  0.66666667  4.629630e-03
  0.33333333  0.50000000  0.83333333  4.629630e-03
  0.33333333  0.66666667  0.00000000  4.629630e-03
  0.33333333  0.66666667  0.16666667  4.629630e-03
  0.33333333  0.66666667  0.33333333  4.629630e-03
  0.33333333  0.66666667  0.50000000  4.629630e-03
  0.33333333  0.66666667  0.66666667  4.629630e-03
  0.33333333  0.66666667  0.83333333  4.629630e-03
  0.33333333  0.83333333  0.00000000  4.629630e-03
  0.33333333  0.83333333  0.16666667  4.629630e-03
  0.33333333  0.83333333  0.33333333  4.629630e-03
  0.33333333  0.83333333  0.50000000  4.629630e-03
  0.33333333  0.83333333  0.66666667  4.629630e-03
  0.33333333  0.83333333  0.83333333  4.629630e-03
  0.50000000  0.00000000  0.00000000  4.629630e-03
  0.50000000  0.00000000  0.16666667  4.629630e-03
  0.50000000  0.00000000  0.33333333  4.629630e-03
  0.50000000  0.00000000  0.50000000  4.629630e-03
  0.50000000  0.00000000  0.66666667  4.629630e-03
  0.50000000  0.00000000  0.83333333  4.629630e-03
  0.50000000  0.16666667  0.00000000  4.629630e-03
  0.50000000  0.16666667  0.16666667  4.629630e-03
  0.50000000  0.16666667  0.33333333  4.629630e-03
  0.50000000  0.16666667  0.50000000  4.629630e-03
  0.50000000  0.16666667  0.66666667  4.629630e-03
  0.50000000  0.16666667  0.83333333  4.629630e-03
  0.50000000  0.33333333  0.00000000  4.629630e-03
  0.50000000  0.33333333  0.16666667  4.629630e-03
  0.50000000  0.33333333  0.33333333  4.629630e-03
  0.50000000  0.33333333  0.50000000  4.629630e-03
  0.50000000  0.33333333  0.66666667  4.629630e-03
  0.50000000  0.33333333  0.83333333  4.629630e-03
  0.50000000  0.50000000  0.00000000  4.629630e-03
  0.50000000  0.50000000  0.16666667  4.629630e-03
  0.50000000  0.50000000  0.33333333  4.629630e-03
  0.50000000  0.50000000  0.50000000  4.629630e-03
  0.50000000  0.50000000  0.66666667  4.629630e-03
  0.50000000  0.50000000  0.83333333  4.629630e-03
  0.50000000  0.66666667  0.00000000  4.629630e-03
  0.50000000  0.66666667  0.16666667  4.629630e-03
  0.50000000  0.66666667  0.33333333  4.629630e-03
  0.50000000  0.66666667  0.50000000  4.629630e-03
  0.50000000  0.66666667  0.66666667  4.629630e-03
  0.50000000  0.66666667  0.83333333  4.629630e-03
  0.50000000  0.83333333  0.00000000  4.629630e-03
  0.50000000  0.83333333  0.16666667  4.629630e-03
  0.50000000  0.83333333  0.33333333  4.629630e-03
  0.50000000  0.83333333  0.50000000  4.629630e-03
  0.50000000  0.83333333  0.66666667  4.629630e-03
  0.50000000  0.83333333  0.83333333  4.629630e-03
  0.66666667  0.00000000  0.00000000  4.629630e-03
  0.66666667  0.00000000  0.16666667  4.629630e-03
  0.66666667  0.00000000  0.33333333  4.629630e-03
  0.66666667  0.00000000  0.50000000  4.629630e-03
  0.66666667  0.00000000  0.66666667  4.629630e-03
  0.66666667  0.00000000  0.83333333  4.629630e-03
  0.66666667  0.16666667  0.00000000  4.629630e-03
  0.66666667  0.16666667  0.16666667  4.629630e-03
  0.66666667  0.16666667  0.33333333  4.629630e-03
  0.66666667  0.16666667  0.50000000  4.629630e-03
  0.66666667  0.16666667  0.66666667  4.629630e-03
  0.66666667  0.16666667  0.83333333  4.629630e-03
  0.66666667  0.33333333  0.00000000  4.629630e-03
  0.66666667  0.33333333  0.16666667  4.629630e-03
  0.66666667  0.33333333  0.33333333  4.629630e-03
  0.66666667  0.33333333  0.50000000  4.629630e-03
  0.66666667  0.33333333  0.66666667  4.629630e-03
  0.66666667  0.33333333  0.83333333  4.629630e-03
  0.66666667  0.50000000  0.00000000  4.629630e-03
  0.66666667  0.50000000  0.16666667  4.629630e-03
  0.66666667  0.50000000  0.33333333  4.629630e-03
  0.66666667  0.50000000  0.50000000  4.629630e-03
  0.66666667  0.50000000  0.66666667  4.629630e-03
  0.66666667  0.50000000  0.83333333  4.629630e-03
  0.66666667  0.66666667  0.00000000  4.629630e-03
  0.66666667  0.66666667  0.16666667  4.629630e-03
  0.66666667  0.66666667  0.33333333  4.629630e-03
  0.66666667  0.66666667  0.50000000  4.629630e-03
  0.66666667  0.66666667  0.66666667  4.629630e-03
  0.66666667  0.66666667  0.83333333  4.629630e-03
  0.66666667  0.83333333  0.00000000  4.629630e-03
  0.66666667  0.83333333  0.16666667  4.629630e-03
  0.66666667  0.83333333  0.33333333  4.629630e-03
  0.66666667  0.83333333  0.50000000  4.629630e-03
  0.66666667  0.83333333  0.66666667  4.629630e-03
  0.66666667  0.83333333  0.83333333  4.629630e-03
  0.83333333  0.00000000  0.00000000  4.629630e-03
  0.83333333  0.00000000  0.16666667  4.629630e-03
  0.83333333  0.00000000  0.33333333  4.629630e-03
  0.83333333  0.00000000  0.50000000  4.629630e-03
  0.83333333  0.00000000  0.66666667  4.629630e-03
  0.83333333  0.00000000  0.83333333  4.629630e-03
  0.83333333  0.16666667  0.00000000  4.629630e-03
  0.83333333  0.16666667  0.16666667  4.629630e-03
  0.83333333  0.16666667  0.33333333  4.629630e-03
  0.83333333  0.16666667  0.50000000  4.629630e-03
  0.83333333  0.16666667  0.66666667  4.629630e-03
  0.83333333  0.16666667  0.83333333  4.629630e-03
  0.83333333  0.33333333  0.00000000  4.629630e-03
  0.83333333  0.33333333  0.16666667  4.629630e-03
  0.83333333  0.33333333  0.33333333  4.629630e-03
  0.83333333  0.33333333  0.50000000  4.629630e-03
  0.83333333  0.33333333  0.66666667  4.629630e-03
  0.83333333  0.33333333  0.83333333  4.629630e-03
  0.83333333  0.50000000  0.00000000  4.629630e-03
  0.83333333  0.50000000  0.16666667  4.629630e-03
  0.83333333  0.50000000  0.33333333  4.629630e-03
  0.83333333  0.50000000  0.50000000  4.629630e-03
  0.83333333  0.50000000  0.66666667  4.629630e-03
  0.83333333  0.50000000  0.83333333  4.629630e-03
  0.83333333  0.66666667  0.00000000  4.629630e-03
  0.83333333  0.66666667  0.16666667  4.629630e-03
  0.83333333  0.66666667  0.33333333  4.629630e-03
  0.83333333  0.66666667  0.50000000  4.629630e-03
  0.83333333  0.66666667  0.66666667  4.629630e-03
  0.83333333  0.66666667  0.83333333  4.629630e-03
  0.83333333  0.83333333  0.00000000  4.629630e-03
  0.83333333  0.83333333  0.16666667  4.629630e-03
  0.83333333  0.83333333  0.33333333  4.629630e-03
  0.83333333  0.83333333  0.50000000  4.629630e-03
  0.83333333  0.83333333  0.66666667  4.629630e-03
  0.83333333  0.83333333  0.83333333  4.629630e-03
