#restart             = plot
wannier_plot        = true
wannier_plot_format = cube
wvfn_formatted      = .true.

# Valence only
num_wann        = 15

num_iter        = 100
conv_tol        = 1e-10
conv_window     = 5

translate_home_cell = true
guiding_centres = true

mp_grid         = 1 1 1
gamma_only      = true

begin kpoints
0.0000  0.0000   0.0000
end kpoints

begin atoms_cart
Bohr
C     15.628439779     15.000000000  15.00
C     14.309410418     17.284679795  15.00
C     11.671351697     17.284679795  15.00
C     10.352322336     15.000000000  15.00
C     11.671351697     12.715320205  15.00
C     14.309410418     12.715320205  15.00
H     17.675013988     15.000000000  15.00
H     15.333642386     19.057243606  15.00
H     10.647119729     19.057243606  15.00
H      8.305748128     15.000000000  15.00
H     10.647119729     10.942756393  15.00
H     15.333642386     10.942756393  15.00
end atoms_cart

begin projections
random
end projections

begin unit_cell_cart
bohr
  30.000   0.0000000   0.000
   0.000  30.0000000   0.000
   0.000   0.0000000  30.000
end_unit_cell_cart
