&inputpp 
   outdir = './tempdir'
   prefix = 'benz'
   seedname = 'benzene'
   spin_component = 'none'
   write_mmn = .true.
   write_amn = .true.
   write_unk = .true.
   wvfn_formatted = .true.
/
